<OpenMD version=2>
  <MetaData>

molecule{
  name = "Al";

  atom[0]{
    type="Al_FQ";
    position( 0.0, 0.0, 0.0 );
  }
}

molecule{
  name = "O";

  atom[0]{
    type="O_FQ";
    position( 0.0, 0.0, 0.0 );
  }
}

component{
  type = "Al";
	nMol = 1728;
}
component{
  type = "O";
	nMol = 2592;
}
flucQ {
  propagator = "Damped";
  targetTemp = 1;
  dragCoefficient = 1;
}
forceField = "DR-EAM";
forceFieldFileName = "DR-EAM.v2.frc";

outputFluctuatingCharges = true;
outputElectricField = true;
outputDensity = true;

ensemble = NVT;
dt = 0.1;
runTime = 1;
sampleTime = 1;
statusTime = 1;
targetTemp = 10;
tauThermostat = 100;

cutoffMethod = "shifted_force";
cutoffRadius = 12;
electrostaticScreeningMethod = "DAMPED";
dampingAlpha = 0.105;

statFileFormat = "TIME|TOTAL_ENERGY|POTENTIAL_ENERGY|KINETIC_ENERGY|TEMPERATURE|PRESSURE|VOLUME|CONSERVED_QUANTITY|SYSTEM_DIPOLE";


## Last run using OpenMD version: 2.6, revision: 6bd3a254e3606fcb0e90721e2d6c530258469ec2
  </MetaData>
  <Snapshot>
    <FrameData>
        Time: 0
        Hmat: {{ 33.288, 0, 0 }, { 0, 28.83, 0 }, { 0, 0, 39.3488 }}
  Thermostat: 0 , 0
    Barostat: {{ 0, 0, 0 }, { 0, 0, 0 }, { 0, 0, 0 }}
    </FrameData>
    <StuntDoubles>
         0      pv        7.432928628       -1.671331799         19.4280294  0.000000e+00  0.000000e+00  0.000000e+00
         1      pv        7.432928628        7.938668201         19.4280294  0.000000e+00  0.000000e+00  0.000000e+00
         2      pv        7.432928628         17.5486682         19.4280294  0.000000e+00  0.000000e+00  0.000000e+00
         3      pv        24.07692863       -1.671331799         19.4280294  0.000000e+00  0.000000e+00  0.000000e+00
         4      pv        24.07692863        7.938668201         19.4280294  0.000000e+00  0.000000e+00  0.000000e+00
         5      pv        24.07692863         17.5486682         19.4280294  0.000000e+00  0.000000e+00  0.000000e+00
         6      pv        7.432928628       -1.671331799         15.5480294  0.000000e+00  0.000000e+00  0.000000e+00
         7      pv        7.432928628        7.938668201         15.5480294  0.000000e+00  0.000000e+00  0.000000e+00
         8      pv        7.432928628         17.5486682         15.5480294  0.000000e+00  0.000000e+00  0.000000e+00
         9      pv        24.07692863       -1.671331799         15.5480294  0.000000e+00  0.000000e+00  0.000000e+00
        10      pv        24.07692863        7.938668201         15.5480294  0.000000e+00  0.000000e+00  0.000000e+00
        11      pv        24.07692863         17.5486682         15.5480294  0.000000e+00  0.000000e+00  0.000000e+00
        12      pv        6.076928628       -4.091331799         13.3620294  0.000000e+00  0.000000e+00  0.000000e+00
        13      pv        6.076928628        5.518668201         13.3620294  0.000000e+00  0.000000e+00  0.000000e+00
        14      pv        6.076928628         15.1286682         13.3620294  0.000000e+00  0.000000e+00  0.000000e+00
        15      pv        22.72092863       -4.091331799         13.3620294  0.000000e+00  0.000000e+00  0.000000e+00
        16      pv        22.72092863        5.518668201         13.3620294  0.000000e+00  0.000000e+00  0.000000e+00
        17      pv        22.72092863         15.1286682         13.3620294  0.000000e+00  0.000000e+00  0.000000e+00
        18      pv        6.076928628       -4.091331799         17.2420294  0.000000e+00  0.000000e+00  0.000000e+00
        19      pv        6.076928628        5.518668201         17.2420294  0.000000e+00  0.000000e+00  0.000000e+00
        20      pv        6.076928628         15.1286682         17.2420294  0.000000e+00  0.000000e+00  0.000000e+00
        21      pv        22.72092863       -4.091331799         17.2420294  0.000000e+00  0.000000e+00  0.000000e+00
        22      pv        22.72092863        5.518668201         17.2420294  0.000000e+00  0.000000e+00  0.000000e+00
        23      pv        22.72092863         15.1286682         17.2420294  0.000000e+00  0.000000e+00  0.000000e+00
        24      pv        7.432928628       -1.671331799        8.990029403  0.000000e+00  0.000000e+00  0.000000e+00
        25      pv        7.432928628        7.938668201        8.990029403  0.000000e+00  0.000000e+00  0.000000e+00
        26      pv        7.432928628         17.5486682        8.990029403  0.000000e+00  0.000000e+00  0.000000e+00
        27      pv        24.07692863       -1.671331799        8.990029403  0.000000e+00  0.000000e+00  0.000000e+00
        28      pv        24.07692863        7.938668201        8.990029403  0.000000e+00  0.000000e+00  0.000000e+00
        29      pv        24.07692863         17.5486682        8.990029403  0.000000e+00  0.000000e+00  0.000000e+00
        30      pv        7.432928628       -1.671331799         12.8700294  0.000000e+00  0.000000e+00  0.000000e+00
        31      pv        7.432928628        7.938668201         12.8700294  0.000000e+00  0.000000e+00  0.000000e+00
        32      pv        7.432928628         17.5486682         12.8700294  0.000000e+00  0.000000e+00  0.000000e+00
        33      pv        24.07692863       -1.671331799         12.8700294  0.000000e+00  0.000000e+00  0.000000e+00
        34      pv        24.07692863        7.938668201         12.8700294  0.000000e+00  0.000000e+00  0.000000e+00
        35      pv        24.07692863         17.5486682         12.8700294  0.000000e+00  0.000000e+00  0.000000e+00
        36      pv        6.076928628       -4.091331799         10.6840294  0.000000e+00  0.000000e+00  0.000000e+00
        37      pv        6.076928628        5.518668201         10.6840294  0.000000e+00  0.000000e+00  0.000000e+00
        38      pv        6.076928628         15.1286682         10.6840294  0.000000e+00  0.000000e+00  0.000000e+00
        39      pv        22.72092863       -4.091331799         10.6840294  0.000000e+00  0.000000e+00  0.000000e+00
        40      pv        22.72092863        5.518668201         10.6840294  0.000000e+00  0.000000e+00  0.000000e+00
        41      pv        22.72092863         15.1286682         10.6840294  0.000000e+00  0.000000e+00  0.000000e+00
        42      pv        6.076928628       -4.091331799        6.804029403  0.000000e+00  0.000000e+00  0.000000e+00
        43      pv        6.076928628        5.518668201        6.804029403  0.000000e+00  0.000000e+00  0.000000e+00
        44      pv        6.076928628         15.1286682        6.804029403  0.000000e+00  0.000000e+00  0.000000e+00
        45      pv        22.72092863       -4.091331799        6.804029403  0.000000e+00  0.000000e+00  0.000000e+00
        46      pv        22.72092863        5.518668201        6.804029403  0.000000e+00  0.000000e+00  0.000000e+00
        47      pv        22.72092863         15.1286682        6.804029403  0.000000e+00  0.000000e+00  0.000000e+00
        48      pv        3.303928628       -4.127331799         19.4280294  0.000000e+00  0.000000e+00  0.000000e+00
        49      pv        3.303928628        5.482668201         19.4280294  0.000000e+00  0.000000e+00  0.000000e+00
        50      pv        3.303928628         15.0926682         19.4280294  0.000000e+00  0.000000e+00  0.000000e+00
        51      pv        19.94792863       -4.127331799         19.4280294  0.000000e+00  0.000000e+00  0.000000e+00
        52      pv        19.94792863        5.482668201         19.4280294  0.000000e+00  0.000000e+00  0.000000e+00
        53      pv        19.94792863         15.0926682         19.4280294  0.000000e+00  0.000000e+00  0.000000e+00
        54      pv        3.303928628       -4.127331799         15.5480294  0.000000e+00  0.000000e+00  0.000000e+00
        55      pv        3.303928628        5.482668201         15.5480294  0.000000e+00  0.000000e+00  0.000000e+00
        56      pv        3.303928628         15.0926682         15.5480294  0.000000e+00  0.000000e+00  0.000000e+00
        57      pv        19.94792863       -4.127331799         15.5480294  0.000000e+00  0.000000e+00  0.000000e+00
        58      pv        19.94792863        5.482668201         15.5480294  0.000000e+00  0.000000e+00  0.000000e+00
        59      pv        19.94792863         15.0926682         15.5480294  0.000000e+00  0.000000e+00  0.000000e+00
        60      pv        3.303928628       -4.127331799        8.990029403  0.000000e+00  0.000000e+00  0.000000e+00
        61      pv        3.303928628        5.482668201        8.990029403  0.000000e+00  0.000000e+00  0.000000e+00
        62      pv        3.303928628         15.0926682        8.990029403  0.000000e+00  0.000000e+00  0.000000e+00
        63      pv        19.94792863       -4.127331799        8.990029403  0.000000e+00  0.000000e+00  0.000000e+00
        64      pv        19.94792863        5.482668201        8.990029403  0.000000e+00  0.000000e+00  0.000000e+00
        65      pv        19.94792863         15.0926682        8.990029403  0.000000e+00  0.000000e+00  0.000000e+00
        66      pv        3.303928628       -4.127331799         12.8700294  0.000000e+00  0.000000e+00  0.000000e+00
        67      pv        3.303928628        5.482668201         12.8700294  0.000000e+00  0.000000e+00  0.000000e+00
        68      pv        3.303928628         15.0926682         12.8700294  0.000000e+00  0.000000e+00  0.000000e+00
        69      pv        19.94792863       -4.127331799         12.8700294  0.000000e+00  0.000000e+00  0.000000e+00
        70      pv        19.94792863        5.482668201         12.8700294  0.000000e+00  0.000000e+00  0.000000e+00
        71      pv        19.94792863         15.0926682         12.8700294  0.000000e+00  0.000000e+00  0.000000e+00
        72      pv        7.370928628        3.133668201         19.4280294  0.000000e+00  0.000000e+00  0.000000e+00
        73      pv        7.370928628         12.7436682         19.4280294  0.000000e+00  0.000000e+00  0.000000e+00
        74      pv        7.370928628         22.3536682         19.4280294  0.000000e+00  0.000000e+00  0.000000e+00
        75      pv        24.01492863        3.133668201         19.4280294  0.000000e+00  0.000000e+00  0.000000e+00
        76      pv        24.01492863         12.7436682         19.4280294  0.000000e+00  0.000000e+00  0.000000e+00
        77      pv        24.01492863         22.3536682         19.4280294  0.000000e+00  0.000000e+00  0.000000e+00
        78      pv        7.370928628        3.133668201         15.5480294  0.000000e+00  0.000000e+00  0.000000e+00
        79      pv        7.370928628         12.7436682         15.5480294  0.000000e+00  0.000000e+00  0.000000e+00
        80      pv        7.370928628         22.3536682         15.5480294  0.000000e+00  0.000000e+00  0.000000e+00
        81      pv        24.01492863        3.133668201         15.5480294  0.000000e+00  0.000000e+00  0.000000e+00
        82      pv        24.01492863         12.7436682         15.5480294  0.000000e+00  0.000000e+00  0.000000e+00
        83      pv        24.01492863         22.3536682         15.5480294  0.000000e+00  0.000000e+00  0.000000e+00
        84      pv        6.014928628        0.713668201         13.3620294  0.000000e+00  0.000000e+00  0.000000e+00
        85      pv        6.014928628         10.3236682         13.3620294  0.000000e+00  0.000000e+00  0.000000e+00
        86      pv        6.014928628         19.9336682         13.3620294  0.000000e+00  0.000000e+00  0.000000e+00
        87      pv        22.65892863        0.713668201         13.3620294  0.000000e+00  0.000000e+00  0.000000e+00
        88      pv        22.65892863         10.3236682         13.3620294  0.000000e+00  0.000000e+00  0.000000e+00
        89      pv        22.65892863         19.9336682         13.3620294  0.000000e+00  0.000000e+00  0.000000e+00
        90      pv        6.014928628        0.713668201         17.2420294  0.000000e+00  0.000000e+00  0.000000e+00
        91      pv        6.014928628         10.3236682         17.2420294  0.000000e+00  0.000000e+00  0.000000e+00
        92      pv        6.014928628         19.9336682         17.2420294  0.000000e+00  0.000000e+00  0.000000e+00
        93      pv        22.65892863        0.713668201         17.2420294  0.000000e+00  0.000000e+00  0.000000e+00
        94      pv        22.65892863         10.3236682         17.2420294  0.000000e+00  0.000000e+00  0.000000e+00
        95      pv        22.65892863         19.9336682         17.2420294  0.000000e+00  0.000000e+00  0.000000e+00
        96      pv        7.370928628        3.133668201        8.990029403  0.000000e+00  0.000000e+00  0.000000e+00
        97      pv        7.370928628         12.7436682        8.990029403  0.000000e+00  0.000000e+00  0.000000e+00
        98      pv        7.370928628         22.3536682        8.990029403  0.000000e+00  0.000000e+00  0.000000e+00
        99      pv        24.01492863        3.133668201        8.990029403  0.000000e+00  0.000000e+00  0.000000e+00
       100      pv        24.01492863         12.7436682        8.990029403  0.000000e+00  0.000000e+00  0.000000e+00
       101      pv        24.01492863         22.3536682        8.990029403  0.000000e+00  0.000000e+00  0.000000e+00
       102      pv        7.370928628        3.133668201         12.8700294  0.000000e+00  0.000000e+00  0.000000e+00
       103      pv        7.370928628         12.7436682         12.8700294  0.000000e+00  0.000000e+00  0.000000e+00
       104      pv        7.370928628         22.3536682         12.8700294  0.000000e+00  0.000000e+00  0.000000e+00
       105      pv        24.01492863        3.133668201         12.8700294  0.000000e+00  0.000000e+00  0.000000e+00
       106      pv        24.01492863         12.7436682         12.8700294  0.000000e+00  0.000000e+00  0.000000e+00
       107      pv        24.01492863         22.3536682         12.8700294  0.000000e+00  0.000000e+00  0.000000e+00
       108      pv        6.014928628        0.713668201         10.6840294  0.000000e+00  0.000000e+00  0.000000e+00
       109      pv        6.014928628         10.3236682         10.6840294  0.000000e+00  0.000000e+00  0.000000e+00
       110      pv        6.014928628         19.9336682         10.6840294  0.000000e+00  0.000000e+00  0.000000e+00
       111      pv        22.65892863        0.713668201         10.6840294  0.000000e+00  0.000000e+00  0.000000e+00
       112      pv        22.65892863         10.3236682         10.6840294  0.000000e+00  0.000000e+00  0.000000e+00
       113      pv        22.65892863         19.9336682         10.6840294  0.000000e+00  0.000000e+00  0.000000e+00
       114      pv        6.014928628        0.713668201        6.804029403  0.000000e+00  0.000000e+00  0.000000e+00
       115      pv        6.014928628         10.3236682        6.804029403  0.000000e+00  0.000000e+00  0.000000e+00
       116      pv        6.014928628         19.9336682        6.804029403  0.000000e+00  0.000000e+00  0.000000e+00
       117      pv        22.65892863        0.713668201        6.804029403  0.000000e+00  0.000000e+00  0.000000e+00
       118      pv        22.65892863         10.3236682        6.804029403  0.000000e+00  0.000000e+00  0.000000e+00
       119      pv        22.65892863         19.9336682        6.804029403  0.000000e+00  0.000000e+00  0.000000e+00
       120      pv        4.659928628       -1.706331799         17.7340294  0.000000e+00  0.000000e+00  0.000000e+00
       121      pv        4.659928628        7.903668201         17.7340294  0.000000e+00  0.000000e+00  0.000000e+00
       122      pv        4.659928628         17.5136682         17.7340294  0.000000e+00  0.000000e+00  0.000000e+00
       123      pv        21.30392863       -1.706331799         17.7340294  0.000000e+00  0.000000e+00  0.000000e+00
       124      pv        21.30392863        7.903668201         17.7340294  0.000000e+00  0.000000e+00  0.000000e+00
       125      pv        21.30392863         17.5136682         17.7340294  0.000000e+00  0.000000e+00  0.000000e+00
       126      pv        4.659928628       -1.706331799        8.498029403  0.000000e+00  0.000000e+00  0.000000e+00
       127      pv        4.659928628        7.903668201        8.498029403  0.000000e+00  0.000000e+00  0.000000e+00
       128      pv        4.659928628         17.5136682        8.498029403  0.000000e+00  0.000000e+00  0.000000e+00
       129      pv        21.30392863       -1.706331799        8.498029403  0.000000e+00  0.000000e+00  0.000000e+00
       130      pv        21.30392863        7.903668201        8.498029403  0.000000e+00  0.000000e+00  0.000000e+00
       131      pv        21.30392863         17.5136682        8.498029403  0.000000e+00  0.000000e+00  0.000000e+00
       132      pv        3.241928628        0.677668201         19.4280294  0.000000e+00  0.000000e+00  0.000000e+00
       133      pv        3.241928628         10.2876682         19.4280294  0.000000e+00  0.000000e+00  0.000000e+00
       134      pv        3.241928628         19.8976682         19.4280294  0.000000e+00  0.000000e+00  0.000000e+00
       135      pv        19.88592863        0.677668201         19.4280294  0.000000e+00  0.000000e+00  0.000000e+00
       136      pv        19.88592863         10.2876682         19.4280294  0.000000e+00  0.000000e+00  0.000000e+00
       137      pv        19.88592863         19.8976682         19.4280294  0.000000e+00  0.000000e+00  0.000000e+00
       138      pv        3.241928628        0.677668201         15.5480294  0.000000e+00  0.000000e+00  0.000000e+00
       139      pv        3.241928628         10.2876682         15.5480294  0.000000e+00  0.000000e+00  0.000000e+00
       140      pv        3.241928628         19.8976682         15.5480294  0.000000e+00  0.000000e+00  0.000000e+00
       141      pv        19.88592863        0.677668201         15.5480294  0.000000e+00  0.000000e+00  0.000000e+00
       142      pv        19.88592863         10.2876682         15.5480294  0.000000e+00  0.000000e+00  0.000000e+00
       143      pv        19.88592863         19.8976682         15.5480294  0.000000e+00  0.000000e+00  0.000000e+00
       144      pv        1.885928628       -1.742331799         13.3620294  0.000000e+00  0.000000e+00  0.000000e+00
       145      pv        1.885928628        7.867668201         13.3620294  0.000000e+00  0.000000e+00  0.000000e+00
       146      pv        1.885928628         17.4776682         13.3620294  0.000000e+00  0.000000e+00  0.000000e+00
       147      pv        18.52992863       -1.742331799         13.3620294  0.000000e+00  0.000000e+00  0.000000e+00
       148      pv        18.52992863        7.867668201         13.3620294  0.000000e+00  0.000000e+00  0.000000e+00
       149      pv        18.52992863         17.4776682         13.3620294  0.000000e+00  0.000000e+00  0.000000e+00
       150      pv        1.885928628       -1.742331799         17.2420294  0.000000e+00  0.000000e+00  0.000000e+00
       151      pv        1.885928628        7.867668201         17.2420294  0.000000e+00  0.000000e+00  0.000000e+00
       152      pv        1.885928628         17.4776682         17.2420294  0.000000e+00  0.000000e+00  0.000000e+00
       153      pv        18.52992863       -1.742331799         17.2420294  0.000000e+00  0.000000e+00  0.000000e+00
       154      pv        18.52992863        7.867668201         17.2420294  0.000000e+00  0.000000e+00  0.000000e+00
       155      pv        18.52992863         17.4776682         17.2420294  0.000000e+00  0.000000e+00  0.000000e+00
       156      pv        4.659928628       -1.706331799         15.0560294  0.000000e+00  0.000000e+00  0.000000e+00
       157      pv        4.659928628        7.903668201         15.0560294  0.000000e+00  0.000000e+00  0.000000e+00
       158      pv        4.659928628         17.5136682         15.0560294  0.000000e+00  0.000000e+00  0.000000e+00
       159      pv        21.30392863       -1.706331799         15.0560294  0.000000e+00  0.000000e+00  0.000000e+00
       160      pv        21.30392863        7.903668201         15.0560294  0.000000e+00  0.000000e+00  0.000000e+00
       161      pv        21.30392863         17.5136682         15.0560294  0.000000e+00  0.000000e+00  0.000000e+00
       162      pv        4.659928628       -1.706331799         11.1760294  0.000000e+00  0.000000e+00  0.000000e+00
       163      pv        4.659928628        7.903668201         11.1760294  0.000000e+00  0.000000e+00  0.000000e+00
       164      pv        4.659928628         17.5136682         11.1760294  0.000000e+00  0.000000e+00  0.000000e+00
       165      pv        21.30392863       -1.706331799         11.1760294  0.000000e+00  0.000000e+00  0.000000e+00
       166      pv        21.30392863        7.903668201         11.1760294  0.000000e+00  0.000000e+00  0.000000e+00
       167      pv        21.30392863         17.5136682         11.1760294  0.000000e+00  0.000000e+00  0.000000e+00
       168      pv        3.241928628        0.677668201        8.990029403  0.000000e+00  0.000000e+00  0.000000e+00
       169      pv        3.241928628         10.2876682        8.990029403  0.000000e+00  0.000000e+00  0.000000e+00
       170      pv        3.241928628         19.8976682        8.990029403  0.000000e+00  0.000000e+00  0.000000e+00
       171      pv        19.88592863        0.677668201        8.990029403  0.000000e+00  0.000000e+00  0.000000e+00
       172      pv        19.88592863         10.2876682        8.990029403  0.000000e+00  0.000000e+00  0.000000e+00
       173      pv        19.88592863         19.8976682        8.990029403  0.000000e+00  0.000000e+00  0.000000e+00
       174      pv        3.241928628        0.677668201         12.8700294  0.000000e+00  0.000000e+00  0.000000e+00
       175      pv        3.241928628         10.2876682         12.8700294  0.000000e+00  0.000000e+00  0.000000e+00
       176      pv        3.241928628         19.8976682         12.8700294  0.000000e+00  0.000000e+00  0.000000e+00
       177      pv        19.88592863        0.677668201         12.8700294  0.000000e+00  0.000000e+00  0.000000e+00
       178      pv        19.88592863         10.2876682         12.8700294  0.000000e+00  0.000000e+00  0.000000e+00
       179      pv        19.88592863         19.8976682         12.8700294  0.000000e+00  0.000000e+00  0.000000e+00
       180      pv        1.885928628       -1.742331799         10.6840294  0.000000e+00  0.000000e+00  0.000000e+00
       181      pv        1.885928628        7.867668201         10.6840294  0.000000e+00  0.000000e+00  0.000000e+00
       182      pv        1.885928628         17.4776682         10.6840294  0.000000e+00  0.000000e+00  0.000000e+00
       183      pv        18.52992863       -1.742331799         10.6840294  0.000000e+00  0.000000e+00  0.000000e+00
       184      pv        18.52992863        7.867668201         10.6840294  0.000000e+00  0.000000e+00  0.000000e+00
       185      pv        18.52992863         17.4776682         10.6840294  0.000000e+00  0.000000e+00  0.000000e+00
       186      pv        1.885928628       -1.742331799        6.804029403  0.000000e+00  0.000000e+00  0.000000e+00
       187      pv        1.885928628        7.867668201        6.804029403  0.000000e+00  0.000000e+00  0.000000e+00
       188      pv        1.885928628         17.4776682        6.804029403  0.000000e+00  0.000000e+00  0.000000e+00
       189      pv        18.52992863       -1.742331799        6.804029403  0.000000e+00  0.000000e+00  0.000000e+00
       190      pv        18.52992863        7.867668201        6.804029403  0.000000e+00  0.000000e+00  0.000000e+00
       191      pv        18.52992863         17.4776682        6.804029403  0.000000e+00  0.000000e+00  0.000000e+00
       192      pv        0.529928628       -4.162331799         17.7340294  0.000000e+00  0.000000e+00  0.000000e+00
       193      pv        0.529928628        5.447668201         17.7340294  0.000000e+00  0.000000e+00  0.000000e+00
       194      pv        0.529928628         15.0576682         17.7340294  0.000000e+00  0.000000e+00  0.000000e+00
       195      pv        17.17392863       -4.162331799         17.7340294  0.000000e+00  0.000000e+00  0.000000e+00
       196      pv        17.17392863        5.447668201         17.7340294  0.000000e+00  0.000000e+00  0.000000e+00
       197      pv        17.17392863         15.0576682         17.7340294  0.000000e+00  0.000000e+00  0.000000e+00
       198      pv        0.529928628       -4.162331799        8.498029403  0.000000e+00  0.000000e+00  0.000000e+00
       199      pv        0.529928628        5.447668201        8.498029403  0.000000e+00  0.000000e+00  0.000000e+00
       200      pv        0.529928628         15.0576682        8.498029403  0.000000e+00  0.000000e+00  0.000000e+00
       201      pv        17.17392863       -4.162331799        8.498029403  0.000000e+00  0.000000e+00  0.000000e+00
       202      pv        17.17392863        5.447668201        8.498029403  0.000000e+00  0.000000e+00  0.000000e+00
       203      pv        17.17392863         15.0576682        8.498029403  0.000000e+00  0.000000e+00  0.000000e+00
       204      pv       -0.888071372       -1.778331799         19.4280294  0.000000e+00  0.000000e+00  0.000000e+00
       205      pv       -0.888071372        7.831668201         19.4280294  0.000000e+00  0.000000e+00  0.000000e+00
       206      pv       -0.888071372         17.4416682         19.4280294  0.000000e+00  0.000000e+00  0.000000e+00
       207      pv        15.75592863       -1.778331799         19.4280294  0.000000e+00  0.000000e+00  0.000000e+00
       208      pv        15.75592863        7.831668201         19.4280294  0.000000e+00  0.000000e+00  0.000000e+00
       209      pv        15.75592863         17.4416682         19.4280294  0.000000e+00  0.000000e+00  0.000000e+00
       210      pv       -0.888071372       -1.778331799         15.5480294  0.000000e+00  0.000000e+00  0.000000e+00
       211      pv       -0.888071372        7.831668201         15.5480294  0.000000e+00  0.000000e+00  0.000000e+00
       212      pv       -0.888071372         17.4416682         15.5480294  0.000000e+00  0.000000e+00  0.000000e+00
       213      pv        15.75592863       -1.778331799         15.5480294  0.000000e+00  0.000000e+00  0.000000e+00
       214      pv        15.75592863        7.831668201         15.5480294  0.000000e+00  0.000000e+00  0.000000e+00
       215      pv        15.75592863         17.4416682         15.5480294  0.000000e+00  0.000000e+00  0.000000e+00
       216      pv       -2.244071372       -4.198331799         13.3620294  0.000000e+00  0.000000e+00  0.000000e+00
       217      pv       -2.244071372        5.411668201         13.3620294  0.000000e+00  0.000000e+00  0.000000e+00
       218      pv       -2.244071372         15.0216682         13.3620294  0.000000e+00  0.000000e+00  0.000000e+00
       219      pv        14.39992863       -4.198331799         13.3620294  0.000000e+00  0.000000e+00  0.000000e+00
       220      pv        14.39992863        5.411668201         13.3620294  0.000000e+00  0.000000e+00  0.000000e+00
       221      pv        14.39992863         15.0216682         13.3620294  0.000000e+00  0.000000e+00  0.000000e+00
       222      pv       -2.244071372       -4.198331799         17.2420294  0.000000e+00  0.000000e+00  0.000000e+00
       223      pv       -2.244071372        5.411668201         17.2420294  0.000000e+00  0.000000e+00  0.000000e+00
       224      pv       -2.244071372         15.0216682         17.2420294  0.000000e+00  0.000000e+00  0.000000e+00
       225      pv        14.39992863       -4.198331799         17.2420294  0.000000e+00  0.000000e+00  0.000000e+00
       226      pv        14.39992863        5.411668201         17.2420294  0.000000e+00  0.000000e+00  0.000000e+00
       227      pv        14.39992863         15.0216682         17.2420294  0.000000e+00  0.000000e+00  0.000000e+00
       228      pv        0.529928628       -4.162331799         15.0560294  0.000000e+00  0.000000e+00  0.000000e+00
       229      pv        0.529928628        5.447668201         15.0560294  0.000000e+00  0.000000e+00  0.000000e+00
       230      pv        0.529928628         15.0576682         15.0560294  0.000000e+00  0.000000e+00  0.000000e+00
       231      pv        17.17392863       -4.162331799         15.0560294  0.000000e+00  0.000000e+00  0.000000e+00
       232      pv        17.17392863        5.447668201         15.0560294  0.000000e+00  0.000000e+00  0.000000e+00
       233      pv        17.17392863         15.0576682         15.0560294  0.000000e+00  0.000000e+00  0.000000e+00
       234      pv        0.529928628       -4.162331799         11.1760294  0.000000e+00  0.000000e+00  0.000000e+00
       235      pv        0.529928628        5.447668201         11.1760294  0.000000e+00  0.000000e+00  0.000000e+00
       236      pv        0.529928628         15.0576682         11.1760294  0.000000e+00  0.000000e+00  0.000000e+00
       237      pv        17.17392863       -4.162331799         11.1760294  0.000000e+00  0.000000e+00  0.000000e+00
       238      pv        17.17392863        5.447668201         11.1760294  0.000000e+00  0.000000e+00  0.000000e+00
       239      pv        17.17392863         15.0576682         11.1760294  0.000000e+00  0.000000e+00  0.000000e+00
       240      pv       -0.888071372       -1.778331799        8.990029403  0.000000e+00  0.000000e+00  0.000000e+00
       241      pv       -0.888071372        7.831668201        8.990029403  0.000000e+00  0.000000e+00  0.000000e+00
       242      pv       -0.888071372         17.4416682        8.990029403  0.000000e+00  0.000000e+00  0.000000e+00
       243      pv        15.75592863       -1.778331799        8.990029403  0.000000e+00  0.000000e+00  0.000000e+00