<OpenMD version=1>
  <MetaData>
  
molecule{
  name = "Pt";
  
  atom[0]{
     type="Pt_FQ";
     position( 0.0, 0.0, 0.0 );
  }
}
molecule{
  name = "O";
  
  atom[0]{
     type="O_FQ";
     position( 0.0, 0.0, 0.0 );
  }
}

component{
  type = "O";
  nMol = 1728;
}
component{
  type = "Pt";
  nMol = 864;
}
flucQ {
  propagator = "Damped";
  targetTemp = 1;
  dragCoefficient = 1;
  doInitialOptimization = false;
}

forceField = "DR-EAM";
forceFieldFileName = "DR-EAM.v2.frc";

outputFluctuatingCharges = true;
outputElectricField = true;
outputDensity = true;

ensemble = NVE;
dt = 0.1;
runTime = 1;
sampleTime = 0.1;
statusTime = 0.1;


cutoffMethod = "shifted_force";
cutoffRadius = 12;
electrostaticScreeningMethod = "DAMPED";
dampingAlpha = 0.105;

statFileFormat = "TIME|TOTAL_ENERGY|POTENTIAL_ENERGY|KINETIC_ENERGY|TEMPERATURE|PRESSURE|VOLUME|CONSERVED_QUANTITY|SYSTEM_DIPOLE";

  </MetaData>
  <Snapshot>
    <FrameData>
        Time: 0
        Hmat: {{ 32.2161, 0, 0 }, { 0, 27.9, 0 }, { 0, 0, 33.288 }}
  Thermostat: 0, 0
    Barostat: {{ 0, 0, 0 }, { 0, 0, 0 }, { 0, 0, 0 }}
    </FrameData>
    <StuntDoubles>
	0	pv	0.894800	1.550200	1.040300	0 0 0
	1	pv	0.894800	1.550200	5.201300	0 0 0
	2	pv	0.894800	1.550200	9.362300	0 0 0
	3	pv	0.894800	1.550200	13.523300	0 0 0
	4	pv	0.894800	1.550200	17.684300	0 0 0
	5	pv	0.894800	1.550200	21.845300	0 0 0
	6	pv	0.894800	1.550200	26.006300	0 0 0
	7	pv	0.894800	1.550200	30.167300	0 0 0
	8	pv	0.894800	4.650200	1.040300	0 0 0
	9	pv	0.894800	4.650200	5.201300	0 0 0
	10	pv	0.894800	4.650200	9.362300	0 0 0
	11	pv	0.894800	4.650200	13.523300	0 0 0
	12	pv	0.894800	4.650200	17.684300	0 0 0
	13	pv	0.894800	4.650200	21.845300	0 0 0
	14	pv	0.894800	4.650200	26.006300	0 0 0
	15	pv	0.894800	4.650200	30.167300	0 0 0
	16	pv	0.894800	7.750200	1.040300	0 0 0
	17	pv	0.894800	7.750200	5.201300	0 0 0
	18	pv	0.894800	7.750200	9.362300	0 0 0
	19	pv	0.894800	7.750200	13.523300	0 0 0
	20	pv	0.894800	7.750200	17.684300	0 0 0
	21	pv	0.894800	7.750200	21.845300	0 0 0
	22	pv	0.894800	7.750200	26.006300	0 0 0
	23	pv	0.894800	7.750200	30.167300	0 0 0
	24	pv	0.894800	10.850200	1.040300	0 0 0
	25	pv	0.894800	10.850200	5.201300	0 0 0
	26	pv	0.894800	10.850200	9.362300	0 0 0
	27	pv	0.894800	10.850200	13.523300	0 0 0
	28	pv	0.894800	10.850200	17.684300	0 0 0
	29	pv	0.894800	10.850200	21.845300	0 0 0
	30	pv	0.894800	10.850200	26.006300	0 0 0
	31	pv	0.894800	10.850200	30.167300	0 0 0
	32	pv	0.894800	13.950200	1.040300	0 0 0
	33	pv	0.894800	13.950200	5.201300	0 0 0
	34	pv	0.894800	13.950200	9.362300	0 0 0
	35	pv	0.894800	13.950200	13.523300	0 0 0
	36	pv	0.894800	13.950200	17.684300	0 0 0
	37	pv	0.894800	13.950200	21.845300	0 0 0
	38	pv	0.894800	13.950200	26.006300	0 0 0
	39	pv	0.894800	13.950200	30.167300	0 0 0
	40	pv	0.894800	17.050200	1.040300	0 0 0
	41	pv	0.894800	17.050200	5.201300	0 0 0
	42	pv	0.894800	17.050200	9.362300	0 0 0
	43	pv	0.894800	17.050200	13.523300	0 0 0
	44	pv	0.894800	17.050200	17.684300	0 0 0
	45	pv	0.894800	17.050200	21.845300	0 0 0
	46	pv	0.894800	17.050200	26.006300	0 0 0
	47	pv	0.894800	17.050200	30.167300	0 0 0
	48	pv	0.894800	20.150200	1.040300	0 0 0
	49	pv	0.894800	20.150200	5.201300	0 0 0
	50	pv	0.894800	20.150200	9.362300	0 0 0
	51	pv	0.894800	20.150200	13.523300	0 0 0
	52	pv	0.894800	20.150200	17.684300	0 0 0
	53	pv	0.894800	20.150200	21.845300	0 0 0
	54	pv	0.894800	20.150200	26.006300	0 0 0
	55	pv	0.894800	20.150200	30.167300	0 0 0
	56	pv	0.894800	23.250200	1.040300	0 0 0
	57	pv	0.894800	23.250200	5.201300	0 0 0
	58	pv	0.894800	23.250200	9.362300	0 0 0
	59	pv	0.894800	23.250200	13.523300	0 0 0
	60	pv	0.894800	23.250200	17.684300	0 0 0
	61	pv	0.894800	23.250200	21.845300	0 0 0
	62	pv	0.894800	23.250200	26.006300	0 0 0
	63	pv	0.894800	23.250200	30.167300	0 0 0
	64	pv	0.894800	26.350200	1.040300	0 0 0
	65	pv	0.894800	26.350200	5.201300	0 0 0
	66	pv	0.894800	26.350200	9.362300	0 0 0
	67	pv	0.894800	26.350200	13.523300	0 0 0
	68	pv	0.894800	26.350200	17.684300	0 0 0
	69	pv	0.894800	26.350200	21.845300	0 0 0
	70	pv	0.894800	26.350200	26.006300	0 0 0
	71	pv	0.894800	26.350200	30.167300	0 0 0
	72	pv	1.789900	3.099800	3.120800	0 0 0
	73	pv	1.789900	3.099800	7.281800	0 0 0
	74	pv	1.789900	3.099800	11.442800	0 0 0
	75	pv	1.789900	3.099800	15.603800	0 0 0
	76	pv	1.789900	3.099800	19.764800	0 0 0
	77	pv	1.789900	3.099800	23.925800	0 0 0
	78	pv	1.789900	3.099800	28.086800	0 0 0
	79	pv	1.789900	3.099800	32.247800	0 0 0
	80	pv	1.789900	6.199800	3.120800	0 0 0
	81	pv	1.789900	6.199800	7.281800	0 0 0
	82	pv	1.789900	6.199800	11.442800	0 0 0
	83	pv	1.789900	6.199800	15.603800	0 0 0
	84	pv	1.789900	6.199800	19.764800	0 0 0
	85	pv	1.789900	6.199800	23.925800	0 0 0
	86	pv	1.789900	6.199800	28.086800	0 0 0
	87	pv	1.789900	6.199800	32.247800	0 0 0
	88	pv	1.789900	9.299800	3.120800	0 0 0
	89	pv	1.789900	9.299800	7.281800	0 0 0
	90	pv	1.789900	9.299800	11.442800	0 0 0
	91	pv	1.789900	9.299800	15.603800	0 0 0
	92	pv	1.789900	9.299800	19.764800	0 0 0
	93	pv	1.789900	9.299800	23.925800	0 0 0
	94	pv	1.789900	9.299800	28.086800	0 0 0
	95	pv	1.789900	9.299800	32.247800	0 0 0
	96	pv	1.789900	-0.000200	3.120800	0 0 0
	97	pv	1.789900	-0.000200	7.281800	0 0 0
	98	pv	1.789900	-0.000200	11.442800	0 0 0
	99	pv	1.789900	-0.000200	15.603800	0 0 0
	100	pv	1.789900	-0.000200	19.764800	0 0 0
	101	pv	1.789900	-0.000200	23.925800	0 0 0
	102	pv	1.789900	-0.000200	28.086800	0 0 0
	103	pv	1.789900	-0.000200	32.247800	0 0 0
	104	pv	1.789900	12.399800	3.120800	0 0 0
	105	pv	1.789900	12.399800	7.281800	0 0 0
	106	pv	1.789900	12.399800	11.442800	0 0 0
	107	pv	1.789900	12.399800	15.603800	0 0 0
	108	pv	1.789900	12.399800	19.764800	0 0 0
	109	pv	1.789900	12.399800	23.925800	0 0 0
	110	pv	1.789900	12.399800	28.086800	0 0 0
	111	pv	1.789900	12.399800	32.247800	0 0 0
	112	pv	1.789900	15.499800	3.120800	0 0 0
	113	pv	1.789900	15.499800	7.281800	0 0 0
	114	pv	1.789900	15.499800	11.442800	0 0 0
	115	pv	1.789900	15.499800	15.603800	0 0 0
	116	pv	1.789900	15.499800	19.764800	0 0 0
	117	pv	1.789900	15.499800	23.925800	0 0 0
	118	pv	1.789900	15.499800	28.086800	0 0 0
	119	pv	1.789900	15.499800	32.247800	0 0 0
	120	pv	1.789900	18.599800	3.120800	0 0 0
	121	pv	1.789900	18.599800	7.281800	0 0 0
	122	pv	1.789900	18.599800	11.442800	0 0 0
	123	pv	1.789900	18.599800	15.603800	0 0 0
	124	pv	1.789900	18.599800	19.764800	0 0 0
	125	pv	1.789900	18.599800	23.925800	0 0 0
	126	pv	1.789900	18.599800	28.086800	0 0 0
	127	pv	1.789900	18.599800	32.247800	0 0 0
	128	pv	1.789900	21.699800	3.120800	0 0 0
	129	pv	1.789900	21.699800	7.281800	0 0 0
	130	pv	1.789900	21.699800	11.442800	0 0 0
	131	pv	1.789900	21.699800	15.603800	0 0 0
	132	pv	1.789900	21.699800	19.764800	0 0 0
	133	pv	1.789900	21.699800	23.925800	0 0 0
	134	pv	1.789900	21.699800	28.086800	0 0 0
	135	pv	1.789900	21.699800	32.247800	0 0 0
	136	pv	1.789900	24.799800	3.120800	0 0 0
	137	pv	1.789900	24.799800	7.281800	0 0 0
	138	pv	1.789900	24.799800	11.442800	0 0 0
	139	pv	1.789900	24.799800	15.603800	0 0 0
	140	pv	1.789900	24.799800	19.764800	0 0 0
	141	pv	1.789900	24.799800	23.925800	0 0 0
	142	pv	1.789900	24.799800	28.086800	0 0 0
	143	pv	1.789900	24.799800	32.247800	0 0 0
	144	pv	3.579500	0.000200	1.040300	0 0 0
	145	pv	3.579500	0.000200	5.201300	0 0 0
	146	pv	3.579500	0.000200	9.362300	0 0 0
	147	pv	3.579500	0.000200	13.523300	0 0 0
	148	pv	3.579500	0.000200	17.684300	0 0 0
	149	pv	3.579500	0.000200	21.845300	0 0 0
	150	pv	3.579500	0.000200	26.006300	0 0 0
	151	pv	3.579500	0.000200	30.167300	0 0 0
	152	pv	3.579500	3.100200	1.040300	0 0 0
	153	pv	3.579500	3.100200	5.201300	0 0 0
	154	pv	3.579500	3.100200	9.362300	0 0 0
	155	pv	3.579500	3.100200	13.523300	0 0 0
	156	pv	3.579500	3.100200	17.684300	0 0 0
	157	pv	3.579500	3.100200	21.845300	0 0 0
	158	pv	3.579500	3.100200	26.006300	0 0 0
	159	pv	3.579500	3.100200	30.167300	0 0 0
	160	pv	3.579500	6.200200	1.040300	0 0 0
	161	pv	3.579500	6.200200	5.201300	0 0 0
	162	pv	3.579500	6.200200	9.362300	0 0 0
	163	pv	3.579500	6.200200	13.523300	0 0 0
	164	pv	3.579500	6.200200	17.684300	0 0 0
	165	pv	3.579500	6.200200	21.845300	0 0 0
	166	pv	3.579500	6.200200	26.006300	0 0 0
	167	pv	3.579500	6.200200	30.167300	0 0 0
	168	pv	3.579500	9.300200	1.040300	0 0 0
	169	pv	3.579500	9.300200	5.201300	0 0 0
	170	pv	3.579500	9.300200	9.362300	0 0 0
	171	pv	3.579500	9.300200	13.523300	0 0 0
	172	pv	3.579500	9.300200	17.684300	0 0 0
	173	pv	3.579500	9.300200	21.845300	0 0 0
	174	pv	3.579500	9.300200	26.006300	0 0 0
	175	pv	3.579500	9.300200	30.167300	0 0 0
	176	pv	3.579500	12.400200	1.040300	0 0 0
	177	pv	3.579500	12.400200	5.201300	0 0 0
	178	pv	3.579500	12.400200	9.362300	0 0 0
	179	pv	3.579500	12.400200	13.523300	0 0 0
	180	pv	3.579500	12.400200	17.684300	0 0 0
	181	pv	3.579500	12.400200	21.845300	0 0 0
	182	pv	3.579500	12.400200	26.006300	0 0 0
	183	pv	3.579500	12.400200	30.167300	0 0 0
	184	pv	3.579500	15.500200	1.040300	0 0 0
	185	pv	3.579500	15.500200	5.201300	0 0 0
	186	pv	3.579500	15.500200	9.362300	0 0 0
	187	pv	3.579500	15.500200	13.523300	0 0 0
	188	pv	3.579500	15.500200	17.684300	0 0 0
	189	pv	3.579500	15.500200	21.845300	0 0 0
	190	pv	3.579500	15.500200	26.006300	0 0 0
	191	pv	3.579500	15.500200	30.167300	0 0 0
	192	pv	3.579500	18.600200	1.040300	0 0 0
	193	pv	3.579500	18.600200	5.201300	0 0 0
	194	pv	3.579500	18.600200	9.362300	0 0 0
	195	pv	3.579500	18.600200	13.523300	0 0 0
	196	pv	3.579500	18.600200	17.684300	0 0 0
	197	pv	3.579500	18.600200	21.845300	0 0 0
	198	pv	3.579500	18.600200	26.006300	0 0 0
	199	pv	3.579500	18.600200	30.167300	0 0 0
	200	pv	3.579500	21.700200	1.040300	0 0 0
	201	pv	3.579500	21.700200	5.201300	0 0 0
	202	pv	3.579500	21.700200	9.362300	0 0 0
	203	pv	3.579500	21.700200	13.523300	0 0 0
	204	pv	3.579500	21.700200	17.684300	0 0 0
	205	pv	3.579500	21.700200	21.845300	0 0 0
	206	pv	3.579500	21.700200	26.006300	0 0 0
	207	pv	3.579500	21.700200	30.167300	0 0 0
	208	pv	3.579500	24.800200	1.040300	0 0 0
	209	pv	3.579500	24.800200	5.201300	0 0 0
	210	pv	3.579500	24.800200	9.362300	0 0 0
	211	pv	3.579500	24.800200	13.523300	0 0 0
	212	pv	3.579500	24.800200	17.684300	0 0 0
	213	pv	3.579500	24.800200	21.845300	0 0 0
	214	pv	3.579500	24.800200	26.006300	0 0 0
	215	pv	3.579500	24.800200	30.167300	0 0 0
	216	pv	4.474600	1.549800	3.120800	0 0 0
	217	pv	4.474600	1.549800	7.281800	0 0 0
	218	pv	4.474600	1.549800	11.442800	0 0 0
	219	pv	4.474600	1.549800	15.603800	0 0 0
	220	pv	4.474600	1.549800	19.764800	0 0 0
	221	pv	4.474600	1.549800	23.925800	0 0 0
	222	pv	4.474600	1.549800	28.086800	0 0 0
	223	pv	4.474600	1.549800	32.247800	0 0 0
	224	pv	4.474600	4.649800	3.120800	0 0 0
	225	pv	4.474600	4.649800	7.281800	0 0 0
	226	pv	4.474600	4.649800	11.442800	0 0 0
	227	pv	4.474600	4.649800	15.603800	0 0 0
	228	pv	4.474600	4.649800	19.764800	0 0 0
	229	pv	4.474600	4.649800	23.925800	0 0 0
	230	pv	4.474600	4.649800	28.086800	0 0 0
	231	pv	4.474600	4.649800	32.247800	0 0 0
	232	pv	4.474600	7.749800	3.120800	0 0 0
	233	pv	4.474600	7.749800	7.281800	0 0 0
	234	pv	4.474600	7.749800	11.442800	0 0 0
	235	pv	4.474600	7.749800	15.603800	0 0 0
	236	pv	4.474600	7.749800	19.764800	0 0 0
	237	pv	4.474600	7.749800	23.925800	0 0 0
	238	pv	4.474600	7.749800	28.086800	0 0 0
	239	pv	4.474600	7.749800	32.247800	0 0 0
	240	pv	4.474600	10.849800	3.120800	0 0 0
	241	pv	4.474600	10.849800	7.281800	0 0 0
	242	pv	4.474600	10.849800	11.442800	0 0 0
	243	pv	4.474600	10.849800	15.603800	0 0 0
	244	pv	4.474600	10.849800	19.764800	0 0 0
	245	pv	4.474600	10.849800	23.925800	0 0 0
	246	pv	4.474600	10.849800	28.086800	0 0 0
	247	pv	4.474600	10.849800	32.247800	0 0 0
	248	pv	4.474600	13.949800	3.120800	0 0 0
	249	pv	4.474600	13.949800	7.281800	0 0 0
	250	pv	4.474600	13.949800	11.442800	0 0 0
	251	pv	4.474600	13.949800	15.603800	0 0 0
	252	pv	4.474600	13.949800	19.764800	0 0 0
	253	pv	4.474600	13.949800	23.925800	0 0 0
	254	pv	4.474600	13.949800	28.086800	0 0 0
	255	pv	4.474600	13.949800	32.247800	0 0 0
	256	pv	4.474600	17.049800	3.120800	0 0 0
	257	pv	4.474600	17.049800	7.281800	0 0 0
	258	pv	4.474600	17.049800	11.442800	0 0 0
	259	pv	4.474600	17.049800	15.603800	0 0 0
	260	pv	4.474600	17.049800	19.764800	0 0 0
	261	pv	4.474600	17.049800	23.925800	0 0 0
	262	pv	4.474600	17.049800	28.086800	0 0 0
	263	pv	4.474600	17.049800	32.247800	0 0 0
	264	pv	4.474600	20.149800	3.120800	0 0 0
	265	pv	4.474600	20.149800	7.281800	0 0 0
	266	pv	4.474600	20.149800	11.442800	0 0 0
	267	pv	4.474600	20.149800	15.603800	0 0 0
	268	pv	4.474600	20.149800	19.764800	0 0 0
	269	pv	4.474600	20.149800	23.925800	0 0 0
	270	pv	4.474600	20.149800	28.086800	0 0 0
	271	pv	4.474600	20.149800	32.247800	0 0 0
	272	pv	4.474600	23.249800	3.120800	0 0 0
	273	pv	4.474600	23.249800	7.281800	0 0 0
	274	pv	4.474600	23.249800	11.442800	0 0 0
	275	pv	4.474600	23.249800	15.603800	0 0 0
	276	pv	4.474600	23.249800	19.764800	0 0 0
	277	pv	4.474600	23.249800	23.925800	0 0 0
	278	pv	4.474600	23.249800	28.086800	0 0 0
	279	pv	4.474600	23.249800	32.247800	0 0 0
	280	pv	4.474600	26.349800	3.120800	0 0 0
	281	pv	4.474600	26.349800	7.281800	0 0 0
	282	pv	4.474600	26.349800	11.442800	0 0 0
	283	pv	4.474600	26.349800	15.603800	0 0 0
	284	pv	4.474600	26.349800	19.764800	0 0 0
	285	pv	4.474600	26.349800	23.925800	0 0 0
	286	pv	4.474600	26.349800	28.086800	0 0 0
	287	pv	4.474600	26.349800	32.247800	0 0 0
	288	pv	6.264200	1.550200	1.040300	0 0 0
	289	pv	6.264200	1.550200	5.201300	0 0 0
	290	pv	6.264200	1.550200	9.362300	0 0 0
	291	pv	6.264200	1.550200	13.523300	0 0 0
	292	pv	6.264200	1.550200	17.684300	0 0 0
	293	pv	6.264200	1.550200	21.845300	0 0 0
	294	pv	6.264200	1.550200	26.006300	0 0 0
	295	pv	6.264200	1.550200	30.167300	0 0 0
	296	pv	6.264200	4.650200	1.040300	0 0 0
	297	pv	6.264200	4.650200	5.201300	0 0 0
	298	pv	6.264200	4.650200	9.362300	0 0 0
	299	pv	6.264200	4.650200	13.523300	0 0 0
	300	pv	6.264200	4.650200	17.684300	0 0 0
	301	pv	6.264200	4.650200	21.845300	0 0 0
	302	pv	6.264200	4.650200	26.006300	0 0 0
	303	pv	6.264200	4.650200	30.167300	0 0 0
	304	pv	6.264200	7.750200	1.040300	0 0 0
	305	pv	6.264200	7.750200	5.201300	0 0 0
	306	pv	6.264200	7.750200	9.362300	0 0 0
	307	pv	6.264200	7.750200	13.523300	0 0 0
	308	pv	6.264200	7.750200	17.684300	0 0 0
	309	pv	6.264200	7.750200	21.845300	0 0 0
	310	pv	6.264200	7.750200	26.006300	0 0 0
	311	pv	6.264200	7.750200	30.167300	0 0 0
	312	pv	6.264200	10.850200	1.040300	0 0 0
	313	pv	6.264200	10.850200	5.201300	0 0 0
	314	pv	6.264200	10.850200	9.362300	0 0 0
	315	pv	6.264200	10.850200	13.523300	0 0 0
	316	pv	6.264200	10.850200	17.684300	0 0 0
	317	pv	6.264200	10.850200	21.845300	0 0 0
	318	pv	6.264200	10.850200	26.006300	0 0 0
	319	pv	6.264200	10.850200	30.167300	0 0 0
	320	pv	6.264200	13.950200	1.040300	0 0 0
	321	pv	6.264200	13.950200	5.201300	0 0 0
	322	pv	6.264200	13.950200	9.362300	0 0 0
	323	pv	6.264200	13.950200	13.523300	0 0 0
	324	pv	6.264200	13.950200	17.684300	0 0 0
	325	pv	6.264200	13.950200	21.845300	0 0 0
	326	pv	6.264200	13.950200	26.006300	0 0 0
	327	pv	6.264200	13.950200	30.167300	0 0 0
	328	pv	6.264200	17.050200	1.040300	0 0 0
	329	pv	6.264200	17.050200	5.201300	0 0 0
	330	pv	6.264200	17.050200	9.362300	0 0 0
	331	pv	6.264200	17.050200	13.523300	0 0 0
	332	pv	6.264200	17.050200	17.684300	0 0 0
	333	pv	6.264200	17.050200	21.845300	0 0 0
	334	pv	6.264200	17.050200	26.006300	0 0 0
	335	pv	6.264200	17.050200	30.167300	0 0 0
	336	pv	6.264200	20.150200	1.040300	0 0 0
	337	pv	6.264200	20.150200	5.201300	0 0 0
	338	pv	6.264200	20.150200	9.362300	0 0 0
	339	pv	6.264200	20.150200	13.523300	0 0 0
	340	pv	6.264200	20.150200	17.684300	0 0 0
	341	pv	6.264200	20.150200	21.845300	0 0 0
	342	pv	6.264200	20.150200	26.006300	0 0 0
	343	pv	6.264200	20.150200	30.167300	0 0 0
	344	pv	6.264200	23.250200	1.040300	0 0 0
	345	pv	6.264200	23.250200	5.201300	0 0 0
	346	pv	6.264200	23.250200	9.362300	0 0 0
	347	pv	6.264200	23.250200	13.523300	0 0 0
	348	pv	6.264200	23.250200	17.684300	0 0 0
	349	pv	6.264200	23.250200	21.845300	0 0 0
	350	pv	6.264200	23.250200	26.006300	0 0 0
	351	pv	6.264200	23.250200	30.167300	0 0 0
	352	pv	6.264200	26.350200	1.040300	0 0 0
	353	pv	6.264200	26.350200	5.201300	0 0 0
	354	pv	6.264200	26.350200	9.362300	0 0 0
	355	pv	6.264200	26.350200	13.523300	0 0 0
	356	pv	6.264200	26.350200	17.684300	0 0 0
	357	pv	6.264200	26.350200	21.845300	0 0 0
	358	pv	6.264200	26.350200	26.006300	0 0 0
	359	pv	6.264200	26.350200	30.167300	0 0 0
	360	pv	7.159200	3.099800	3.120800	0 0 0
	361	pv	7.159200	3.099800	7.281800	0 0 0
	362	pv	7.159200	3.099800	11.442800	0 0 0
	363	pv	7.159200	3.099800	15.603800	0 0 0
	364	pv	7.159200	3.099800	19.764800	0 0 0
	365	pv	7.159200	3.099800	23.925800	0 0 0
	366	pv	7.159200	3.099800	28.086800	0 0 0
	367	pv	7.159200	3.099800	32.247800	0 0 0
	368	pv	7.159200	6.199800	3.120800	0 0 0
	369	pv	7.159200	6.199800	7.281800	0 0 0
	370	pv	7.159200	6.199800	11.442800	0 0 0
	371	pv	7.159200	6.199800	15.603800	0 0 0
	372	pv	7.159200	6.199800	19.764800	0 0 0
	373	pv	7.159200	6.199800	23.925800	0 0 0
	374	pv	7.159200	6.199800	28.086800	0 0 0
	375	pv	7.159200	6.199800	32.247800	0 0 0
	376	pv	7.159200	9.299800	3.120800	0 0 0
	377	pv	7.159200	9.299800	7.281800	0 0 0
	378	pv	7.159200	9.299800	11.442800	0 0 0
	379	pv	7.159200	9.299800	15.603800	0 0 0
	380	pv	7.159200	9.299800	19.764800	0 0 0
	381	pv	7.159200	9.299800	23.925800	0 0 0
	382	pv	7.159200	9.299800	28.086800	0 0 0
	383	pv	7.159200	9.299800	32.247800	0 0 0
	384	pv	7.159200	-0.000200	3.120800	0 0 0
	385	pv	7.159200	-0.000200	7.281800	0 0 0
	386	pv	7.159200	-0.000200	11.442800	0 0 0
	387	pv	7.159200	-0.000200	15.603800	0 0 0
	388	pv	7.159200	-0.000200	19.764800	0 0 0
	389	pv	7.159200	-0.000200	23.925800	0 0 0
	390	pv	7.159200	-0.000200	28.086800	0 0 0
	391	pv	7.159200	-0.000200	32.247800	0 0 0
	392	pv	7.159200	12.399800	3.120800	0 0 0
	393	pv	7.159200	12.399800	7.281800	0 0 0
	394	pv	7.159200	12.399800	11.442800	0 0 0
	395	pv	7.159200	12.399800	15.603800	0 0 0
	396	pv	7.159200	12.399800	19.764800	0 0 0
	397	pv	7.159200	12.399800	23.925800	0 0 0
	398	pv	7.159200	12.399800	28.086800	0 0 0
	399	pv	7.159200	12.399800	32.247800	0 0 0
	400	pv	7.159200	15.499800	3.120800	0 0 0
	401	pv	7.159200	15.499800	7.281800	0 0 0
	402	pv	7.159200	15.499800	11.442800	0 0 0
	403	pv	7.159200	15.499800	15.603800	0 0 0
	404	pv	7.159200	15.499800	19.764800	0 0 0
	405	pv	7.159200	15.499800	23.925800	0 0 0
	406	pv	7.159200	15.499800	28.086800	0 0 0
	407	pv	7.159200	15.499800	32.247800	0 0 0
	408	pv	7.159200	18.599800	3.120800	0 0 0
	409	pv	7.159200	18.599800	7.281800	0 0 0
	410	pv	7.159200	18.599800	11.442800	0 0 0
	411	pv	7.159200	18.599800	15.603800	0 0 0
	412	pv	7.159200	18.599800	19.764800	0 0 0
	413	pv	7.159200	18.599800	23.925800	0 0 0
	414	pv	7.159200	18.599800	28.086800	0 0 0
	415	pv	7.159200	18.599800	32.247800	0 0 0
	416	pv	7.159200	21.699800	3.120800	0 0 0
	417	pv	7.159200	21.699800	7.281800	0 0 0
	418	pv	7.159200	21.699800	11.442800	0 0 0
	419	pv	7.159200	21.699800	15.603800	0 0 0
	420	pv	7.159200	21.699800	19.764800	0 0 0
	421	pv	7.159200	21.699800	23.925800	0 0 0
	422	pv	7.159200	21.699800	28.086800	0 0 0
	423	pv	7.159200	21.699800	32.247800	0 0 0
	424	pv	7.159200	24.799800	3.120800	0 0 0
	425	pv	7.159200	24.799800	7.281800	0 0 0
	426	pv	7.159200	24.799800	11.442800	0 0 0
	427	pv	7.159200	24.799800	15.603800	0 0 0
	428	pv	7.159200	24.799800	19.764800	0 0 0
	429	pv	7.159200	24.799800	23.925800	0 0 0
	430	pv	7.159200	24.799800	28.086800	0 0 0
	431	pv	7.159200	24.799800	32.247800	0 0 0
	432	pv	8.948800	0.000200	1.040300	0 0 0
	433	pv	8.948800	0.000200	5.201300	0 0 0
	434	pv	8.948800	0.000200	9.362300	0 0 0
	435	pv	8.948800	0.000200	13.523300	0 0 0
	436	pv	8.948800	0.000200	17.684300	0 0 0
	437	pv	8.948800	0.000200	21.845300	0 0 0
	438	pv	8.948800	0.000200	26.006300	0 0 0
	439	pv	8.948800	0.000200	30.167300	0 0 0
	440	pv	8.948800	3.100200	1.040300	0 0 0
	441	pv	8.948800	3.100200	5.201300	0 0 0
	442	pv	8.948800	3.100200	9.362300	0 0 0
	443	pv	8.948800	3.100200	13.523300	0 0 0
	444	pv	8.948800	3.100200	17.684300	0 0 0
	445	pv	8.948800	3.100200	21.845300	0 0 0
	446	pv	8.948800	3.100200	26.006300	0 0 0
	447	pv	8.948800	3.100200	30.167300	0 0 0
	448	pv	8.948800	6.200200	1.040300	0 0 0
	449	pv	8.948800	6.200200	5.201300	0 0 0
	450	pv	8.948800	6.200200	9.362300	0 0 0
	451	pv	8.948800	6.200200	13.523300	0 0 0
	452	pv	8.948800	6.200200	17.684300	0 0 0
	453	pv	8.948800	6.200200	21.845300	0 0 0
	454	pv	8.948800	6.200200	26.006300	0 0 0
	455	pv	8.948800	6.200200	30.167300	0 0 0
	456	pv	8.948800	9.300200	1.040300	0 0 0
	457	pv	8.948800	9.300200	5.201300	0 0 0
	458	pv	8.948800	9.300200	9.362300	0 0 0
	459	pv	8.948800	9.300200	13.523300	0 0 0
	460	pv	8.948800	9.300200	17.684300	0 0 0
	461	pv	8.948800	9.300200	21.845300	0 0 0
	462	pv	8.948800	9.300200	26.006300	0 0 0
	463	pv	8.948800	9.300200	30.167300	0 0 0
	464	pv	8.948800	12.400200	1.040300	0 0 0
	465	pv	8.948800	12.400200	5.201300	0 0 0
	466	pv	8.948800	12.400200	9.362300	0 0 0
	467	pv	8.948800	12.400200	13.523300	0 0 0
	468	pv	8.948800	12.400200	17.684300	0 0 0
	469	pv	8.948800	12.400200	21.845300	0 0 0
	470	pv	8.948800	12.400200	26.006300	0 0 0
	471	pv	8.948800	12.400200	30.167300	0 0 0
	472	pv	8.948800	15.500200	1.040300	0 0 0
	473	pv	8.948800	15.500200	5.201300	0 0 0
	474	pv	8.948800	15.500200	9.362300	0 0 0
	475	pv	8.948800	15.500200	13.523300	0 0 0
	476	pv	8.948800	15.500200	17.684300	0 0 0
	477	pv	8.948800	15.500200	21.845300	0 0 0
	478	pv	8.948800	15.500200	26.006300	0 0 0
	479	pv	8.948800	15.500200	30.167300	0 0 0
	480	pv	8.948800	18.600200	1.040300	0 0 0
	481	pv	8.948800	18.600200	5.201300	0 0 0
	482	pv	8.948800	18.600200	9.362300	0 0 0
	483	pv	8.948800	18.600200	13.523300	0 0 0
	484	pv	8.948800	18.600200	17.684300	0 0 0
	485	pv	8.948800	18.600200	21.845300	0 0 0
	486	pv	8.948800	18.600200	26.006300	0 0 0
	487	pv	8.948800	18.600200	30.167300	0 0 0
	488	pv	8.948800	21.700200	1.040300	0 0 0
	489	pv	8.948800	21.700200	5.201300	0 0 0
	490	pv	8.948800	21.700200	9.362300	0 0 0
	491	pv	8.948800	21.700200	13.523300	0 0 0
	492	pv	8.948800	21.700200	17.684300	0 0 0
	493	pv	8.948800	21.700200	21.845300	0 0 0
	494	pv	8.948800	21.700200	26.006300	0 0 0
	495	pv	8.948800	21.700200	30.167300	0 0 0
	496	pv	8.948800	24.800200	1.040300	0 0 0
	497	pv	8.948800	24.800200	5.201300	0 0 0
	498	pv	8.948800	24.800200	9.362300	0 0 0
	499	pv	8.948800	24.800200	13.523300	0 0 0
	500	pv	8.948800	24.800200	17.684300	0 0 0
	501	pv	8.948800	24.800200	21.845300	0 0 0
	502	pv	8.948800	24.800200	26.006300	0 0 0
	503	pv	8.948800	24.800200	30.167300	0 0 0
	504	pv	9.843900	1.549800	3.120800	0 0 0
	505	pv	9.843900	1.549800	7.281800	0 0 0
	506	pv	9.843900	1.549800	11.442800	0 0 0
	507	pv	9.843900	1.549800	15.603800	0 0 0
	508	pv	9.843900	1.549800	19.764800	0 0 0
	509	pv	9.843900	1.549800	23.925800	0 0 0
	510	pv	9.843900	1.549800	28.086800	0 0 0
	511	pv	9.843900	1.549800	32.247800	0 0 0
	512	pv	9.843900	4.649800	3.120800	0 0 0
	513	pv	9.843900	4.649800	7.281800	0 0 0
	514	pv	9.843900	4.649800	11.442800	0 0 0
	515	pv	9.843900	4.649800	15.603800	0 0 0
	516	pv	9.843900	4.649800	19.764800	0 0 0
	517	pv	9.843900	4.649800	23.925800	0 0 0
	518	pv	9.843900	4.649800	28.086800	0 0 0
	519	pv	9.843900	4.649800	32.247800	0 0 0
	520	pv	9.843900	7.749800	3.120800	0 0 0
	521	pv	9.843900	7.749800	7.281800	0 0 0
	522	pv	9.843900	7.749800	11.442800	0 0 0
	523	pv	9.843900	7.749800	15.603800	0 0 0
	524	pv	9.843900	7.749800	19.764800	0 0 0
	525	pv	9.843900	7.749800	23.925800	0 0 0
	526	pv	9.843900	7.749800	28.086800	0 0 0
	527	pv	9.843900	7.749800	32.247800	0 0 0
	528	pv	9.843900	10.849800	3.120800	0 0 0
	529	pv	9.843900	10.849800	7.281800	0 0 0
	530	pv	9.843900	10.849800	11.442800	0 0 0
	531	pv	9.843900	10.849800	15.603800	0 0 0
	532	pv	9.843900	10.849800	19.764800	0 0 0
	533	pv	9.843900	10.849800	23.925800	0 0 0
	534	pv	9.843900	10.849800	28.086800	0 0 0
	535	pv	9.843900	10.849800	32.247800	0 0 0
	536	pv	9.843900	13.949800	3.120800	0 0 0
	537	pv	9.843900	13.949800	7.281800	0 0 0
	538	pv	9.843900	13.949800	11.442800	0 0 0
	539	pv	9.843900	13.949800	15.603800	0 0 0
	540	pv	9.843900	13.949800	19.764800	0 0 0
	541	pv	9.843900	13.949800	23.925800	0 0 0
	542	pv	9.843900	13.949800	28.086800	0 0 0
	543	pv	9.843900	13.949800	32.247800	0 0 0
	544	pv	9.843900	17.049800	3.120800	0 0 0
	545	pv	9.843900	17.049800	7.281800	0 0 0
	546	pv	9.843900	17.049800	11.442800	0 0 0
	547	pv	9.843900	17.049800	15.603800	0 0 0
	548	pv	9.843900	17.049800	19.764800	0 0 0
	549	pv	9.843900	17.049800	23.925800	0 0 0
	550	pv	9.843900	17.049800	28.086800	0 0 0
	551	pv	9.843900	17.049800	32.247800	0 0 0
	552	pv	9.843900	20.149800	3.120800	0 0 0
	553	pv	9.843900	20.149800	7.281800	0 0 0
	554	pv	9.843900	20.149800	11.442800	0 0 0
	555	pv	9.843900	20.149800	15.603800	0 0 0
	556	pv	9.843900	20.149800	19.764800	0 0 0
	557	pv	9.843900	20.149800	23.925800	0 0 0
	558	pv	9.843900	20.149800	28.086800	0 0 0
	559	pv	9.843900	20.149800	32.247800	0 0 0
	560	pv	9.843900	23.249800	3.120800	0 0 0
	561	pv	9.843900	23.249800	7.281800	0 0 0
	562	pv	9.843900	23.249800	11.442800	0 0 0
	563	pv	9.843900	23.249800	15.603800	0 0 0
	564	pv	9.843900	23.249800	19.764800	0 0 0
	565	pv	9.843900	23.249800	23.925800	0 0 0
	566	pv	9.843900	23.249800	28.086800	0 0 0
	567	pv	9.843900	23.249800	32.247800	0 0 0
	568	pv	9.843900	26.349800	3.120800	0 0 0
	569	pv	9.843900	26.349800	7.281800	0 0 0
	570	pv	9.843900	26.349800	11.442800	0 0 0
	571	pv	9.843900	26.349800	15.603800	0 0 0
	572	pv	9.843900	26.349800	19.764800	0 0 0
	573	pv	9.843900	26.349800	23.925800	0 0 0
	574	pv	9.843900	26.349800	28.086800	0 0 0
	575	pv	9.843900	26.349800	32.247800	0 0 0
	576	pv	11.633500	1.550200	1.040300	0 0 0
	577	pv	11.633500	1.550200	5.201300	0 0 0
	578	pv	11.633500	1.550200	9.362300	0 0 0
	579	pv	11.633500	1.550200	13.523300	0 0 0
	580	pv	11.633500	1.550200	17.684300	0 0 0
	581	pv	11.633500	1.550200	21.845300	0 0 0
	582	pv	11.633500	1.550200	26.006300	0 0 0
	583	pv	11.633500	1.550200	30.167300	0 0 0
	584	pv	11.633500	4.650200	1.040300	0 0 0
	585	pv	11.633500	4.650200	5.201300	0 0 0
	586	pv	11.633500	4.650200	9.362300	0 0 0
	587	pv	11.633500	4.650200	13.523300	0 0 0
	588	pv	11.633500	4.650200	17.684300	0 0 0
	589	pv	11.633500	4.650200	21.845300	0 0 0
	590	pv	11.633500	4.650200	26.006300	0 0 0
	591	pv	11.633500	4.650200	30.167300	0 0 0
	592	pv	11.633500	7.750200	1.040300	0 0 0
	593	pv	11.633500	7.750200	5.201300	0 0 0
	594	pv	11.633500	7.750200	9.362300	0 0 0
	595	pv	11.633500	7.750200	13.523300	0 0 0
	596	pv	11.633500	7.750200	17.684300	0 0 0
	597	pv	11.633500	7.750200	21.845300	0 0 0
	598	pv	11.633500	7.750200	26.006300	0 0 0
	599	pv	11.633500	7.750200	30.167300	0 0 0
	600	pv	11.633500	10.850200	1.040300	0 0 0
	601	pv	11.633500	10.850200	5.201300	0 0 0
	602	pv	11.633500	10.850200	9.362300	0 0 0
	603	pv	11.633500	10.850200	13.523300	0 0 0
	604	pv	11.633500	10.850200	17.684300	0 0 0
	605	pv	11.633500	10.850200	21.845300	0 0 0
	606	pv	11.633500	10.850200	26.006300	0 0 0
	607	pv	11.633500	10.850200	30.167300	0 0 0
	608	pv	11.633500	13.950200	1.040300	0 0 0
	609	pv	11.633500	13.950200	5.201300	0 0 0
	610	pv	11.633500	13.950200	9.362300	0 0 0
	611	pv	11.633500	13.950200	13.523300	0 0 0
	612	pv	11.633500	13.950200	17.684300	0 0 0
	613	pv	11.633500	13.950200	21.845300	0 0 0
	614	pv	11.633500	13.950200	26.006300	0 0 0
	615	pv	11.633500	13.950200	30.167300	0 0 0
	616	pv	11.633500	17.050200	1.040300	0 0 0
	617	pv	11.633500	17.050200	5.201300	0 0 0
	618	pv	11.633500	17.050200	9.362300	0 0 0
	619	pv	11.633500	17.050200	13.523300	0 0 0
	620	pv	11.633500	17.050200	17.684300	0 0 0
	621	pv	11.633500	17.050200	21.845300	0 0 0
	622	pv	11.633500	17.050200	26.006300	0 0 0
	623	pv	11.633500	17.050200	30.167300	0 0 0
	624	pv	11.633500	20.150200	1.040300	0 0 0
	625	pv	11.633500	20.150200	5.201300	0 0 0
	626	pv	11.633500	20.150200	9.362300	0 0 0
	627	pv	11.633500	20.150200	13.523300	0 0 0
	628	pv	11.633500	20.150200	17.684300	0 0 0
	629	pv	11.633500	20.150200	21.845300	0 0 0
	630	pv	11.633500	20.150200	26.006300	0 0 0
	631	pv	11.633500	20.150200	30.167300	0 0 0
	632	pv	11.633500	23.250200	1.040300	0 0 0
	633	pv	11.633500	23.250200	5.201300	0 0 0
	634	pv	11.633500	23.250200	9.362300	0 0 0
	635	pv	11.633500	23.250200	13.523300	0 0 0
	636	pv	11.633500	23.250200	17.684300	0 0 0
	637	pv	11.633500	23.250200	21.845300	0 0 0
	638	pv	11.633500	23.250200	26.006300	0 0 0
	639	pv	11.633500	23.250200	30.167300	0 0 0
	640	pv	11.633500	26.350200	1.040300	0 0 0
	641	pv	11.633500	26.350200	5.201300	0 0 0
	642	pv	11.633500	26.350200	9.362300	0 0 0
	643	pv	11.633500	26.350200	13.523300	0 0 0
	644	pv	11.633500	26.350200	17.684300	0 0 0
	645	pv	11.633500	26.350200	21.845300	0 0 0
	646	pv	11.633500	26.350200	26.006300	0 0 0
	647	pv	11.633500	26.350200	30.167300	0 0 0
	648	pv	12.528600	3.099800	3.120800	0 0 0
	649	pv	12.528600	3.099800	7.281800	0 0 0
	650	pv	12.528600	3.099800	11.442800	0 0 0
	651	pv	12.528600	3.099800	15.603800	0 0 0
	652	pv	12.528600	3.099800	19.764800	0 0 0
	653	pv	12.528600	3.099800	23.925800	0 0 0
	654	pv	12.528600	3.099800	28.086800	0 0 0
	655	pv	12.528600	3.099800	32.247800	0 0 0
	656	pv	12.528600	6.199800	3.120800	0 0 0
	657	pv	12.528600	6.199800	7.281800	0 0 0
	658	pv	12.528600	6.199800	11.442800	0 0 0
	659	pv	12.528600	6.199800	15.603800	0 0 0
	660	pv	12.528600	6.199800	19.764800	0 0 0
	661	pv	12.528600	6.199800	23.925800	0 0 0
	662	pv	12.528600	6.199800	28.086800	0 0 0
	663	pv	12.528600	6.199800	32.247800	0 0 0
	664	pv	12.528600	9.299800	3.120800	0 0 0
	665	pv	12.528600	9.299800	7.281800	0 0 0
	666	pv	12.528600	9.299800	11.442800	0 0 0
	667	pv	12.528600	9.299800	15.603800	0 0 0
	668	pv	12.528600	9.299800	19.764800	0 0 0
	669	pv	12.528600	9.299800	23.925800	0 0 0
	670	pv	12.528600	9.299800	28.086800	0 0 0
	671	pv	12.528600	9.299800	32.247800	0 0 0
	672	pv	12.528600	-0.000200	3.120800	0 0 0
	673	pv	12.528600	-0.000200	7.281800	0 0 0
	674	pv	12.528600	-0.000200	11.442800	0 0 0
	675	pv	12.528600	-0.000200	15.603800	0 0 0
	676	pv	12.528600	-0.000200	19.764800	0 0 0
	677	pv	12.528600	-0.000200	23.925800	0 0 0
	678	pv	12.528600	-0.000200	28.086800	0 0 0
	679	pv	12.528600	-0.000200	32.247800	0 0 0
	680	pv	12.528600	12.399800	3.120800	0 0 0
	681	pv	12.528600	12.399800	7.281800	0 0 0