<OpenMD version=2>
  <MetaData>
molecule{
  name = "Pt";
  
  atom[0]{
     type="Pt_FQ";
     position( 0.0, 0.0, 0.0 );
  }
}
molecule{
  name = "O";
  
  atom[0]{
     type="O_FQ";
     position( 0.0, 0.0, 0.0 );
  }
}

component{
  type = "O";
  nMol = 400;
}
component{
  type = "Pt";
  nMol = 200;
}

flucQ {
  propagator = "Damped";
  dragCoefficient = 0.1;
}
targetTemp = 500.0;
targetPressure = 1.0;

outputFluctuatingCharges = "true";

forceField = "metalsFQ";
forceFieldFileName = "metalsFQ.frc";

ensemble = "NVE";
dt = 1.0;
runTime = 1e2;
cutoffRadius = 9;

statusTime = 1;
sampleTime = 10.0;
seed = 985456376;

useInitialExtendedSystemState="false";
useInitialTime="false";
tauThermostat = 1E3;
tauBarostat = 5E3;

  </MetaData>
  <Snapshot>
    <FrameData>
        Time: 0
        Hmat: {{ 12.4, 0, 0 }, { 0, 26.847, 0 }, { 0, 0, 20.805 }}
    </FrameData>
    <StuntDoubles>
         0      pv              1.552             -0.892             -3.121  0.000000e+00  0.000000e+00  0.000000e+00
         2      pv              4.652             -0.886             -3.121  0.000000e+00  0.000000e+00  0.000000e+00
         4      pv              7.752              -0.88             -3.121  0.000000e+00  0.000000e+00  0.000000e+00
         6      pv             10.852             -0.874             -3.121  0.000000e+00  0.000000e+00  0.000000e+00
         9      pv              3.107             -3.573             -3.121  0.000000e+00  0.000000e+00  0.000000e+00
        11      pv              6.207             -3.568             -3.121  0.000000e+00  0.000000e+00  0.000000e+00
        13      pv              9.307             -3.562             -3.121  0.000000e+00  0.000000e+00  0.000000e+00
        15      pv             12.407             -3.556             -3.121  0.000000e+00  0.000000e+00  0.000000e+00
        16      pv              1.562             -6.261             -3.121  0.000000e+00  0.000000e+00  0.000000e+00
        18      pv              4.662             -6.255             -3.121  0.000000e+00  0.000000e+00  0.000000e+00
        20      pv              7.762             -6.249             -3.121  0.000000e+00  0.000000e+00  0.000000e+00
        22      pv             10.862             -6.243             -3.121  0.000000e+00  0.000000e+00  0.000000e+00
        25      pv              3.117             -8.943             -3.121  0.000000e+00  0.000000e+00  0.000000e+00
        27      pv              6.217             -8.937             -3.121  0.000000e+00  0.000000e+00  0.000000e+00
        29      pv              9.317             -8.931             -3.121  0.000000e+00  0.000000e+00  0.000000e+00
        31      pv             12.417             -8.925             -3.121  0.000000e+00  0.000000e+00  0.000000e+00
        32      pv              1.573            -11.631             -3.121  0.000000e+00  0.000000e+00  0.000000e+00
        34      pv              4.673            -11.625             -3.121  0.000000e+00  0.000000e+00  0.000000e+00
        36      pv              7.773            -11.619             -3.121  0.000000e+00  0.000000e+00  0.000000e+00
        38      pv             10.873            -11.613             -3.121  0.000000e+00  0.000000e+00  0.000000e+00
        41      pv              3.128            -14.312             -3.121  0.000000e+00  0.000000e+00  0.000000e+00
        43      pv              6.228            -14.306             -3.121  0.000000e+00  0.000000e+00  0.000000e+00
        45      pv              9.328              -14.3             -3.121  0.000000e+00  0.000000e+00  0.000000e+00
        47      pv             12.428            -14.294             -3.121  0.000000e+00  0.000000e+00  0.000000e+00
        48      pv              1.583                -17             -3.121  0.000000e+00  0.000000e+00  0.000000e+00
        50      pv              4.683            -16.994             -3.121  0.000000e+00  0.000000e+00  0.000000e+00
        52      pv              7.783            -16.988             -3.121  0.000000e+00  0.000000e+00  0.000000e+00
        54      pv             10.883            -16.982             -3.121  0.000000e+00  0.000000e+00  0.000000e+00
        57      pv              3.138            -19.682             -3.121  0.000000e+00  0.000000e+00  0.000000e+00
        59      pv              6.238            -19.676             -3.121  0.000000e+00  0.000000e+00  0.000000e+00
        61      pv              9.338             -19.67             -3.121  0.000000e+00  0.000000e+00  0.000000e+00
        63      pv             12.438            -19.664             -3.121  0.000000e+00  0.000000e+00  0.000000e+00
        64      pv              1.593            -22.369             -3.121  0.000000e+00  0.000000e+00  0.000000e+00
        66      pv              4.693            -22.363             -3.121  0.000000e+00  0.000000e+00  0.000000e+00
        68      pv              7.793            -22.357             -3.121  0.000000e+00  0.000000e+00  0.000000e+00
        70      pv             10.893            -22.351             -3.121  0.000000e+00  0.000000e+00  0.000000e+00
        73      pv              3.149            -25.051             -3.121  0.000000e+00  0.000000e+00  0.000000e+00
        75      pv              6.249            -25.045             -3.121  0.000000e+00  0.000000e+00  0.000000e+00
        77      pv              9.349            -25.039             -3.121  0.000000e+00  0.000000e+00  0.000000e+00
        79      pv             12.449            -25.033             -3.121  0.000000e+00  0.000000e+00  0.000000e+00
        81      pv              3.103             -1.784             -5.201  0.000000e+00  0.000000e+00  0.000000e+00
        83      pv              6.203             -1.778             -5.201  0.000000e+00  0.000000e+00  0.000000e+00
        85      pv              9.303             -1.772             -5.201  0.000000e+00  0.000000e+00  0.000000e+00
        87      pv             12.403             -1.766             -5.201  0.000000e+00  0.000000e+00  0.000000e+00
        88      pv              1.558             -4.472             -5.201  0.000000e+00  0.000000e+00  0.000000e+00
        90      pv              4.658             -4.466             -5.201  0.000000e+00  0.000000e+00  0.000000e+00
        92      pv              7.758              -4.46             -5.201  0.000000e+00  0.000000e+00  0.000000e+00
        94      pv             10.858             -4.454             -5.201  0.000000e+00  0.000000e+00  0.000000e+00
        97      pv              3.114             -7.153             -5.201  0.000000e+00  0.000000e+00  0.000000e+00
        99      pv              6.214             -7.147             -5.201  0.000000e+00  0.000000e+00  0.000000e+00
       101      pv              9.314             -7.141             -5.201  0.000000e+00  0.000000e+00  0.000000e+00
       103      pv             12.414             -7.135             -5.201  0.000000e+00  0.000000e+00  0.000000e+00
       104      pv              1.569             -9.841             -5.201  0.000000e+00  0.000000e+00  0.000000e+00
       106      pv              4.669             -9.835             -5.201  0.000000e+00  0.000000e+00  0.000000e+00
       108      pv              7.769             -9.829             -5.201  0.000000e+00  0.000000e+00  0.000000e+00
       110      pv             10.869             -9.823             -5.201  0.000000e+00  0.000000e+00  0.000000e+00
       113      pv              3.124            -12.523             -5.201  0.000000e+00  0.000000e+00  0.000000e+00
       115      pv              6.224            -12.517             -5.201  0.000000e+00  0.000000e+00  0.000000e+00
       117      pv              9.324            -12.511             -5.201  0.000000e+00  0.000000e+00  0.000000e+00
       119      pv             12.424            -12.505             -5.201  0.000000e+00  0.000000e+00  0.000000e+00
       120      pv              1.579             -15.21             -5.201  0.000000e+00  0.000000e+00  0.000000e+00
       122      pv              4.679            -15.204             -5.201  0.000000e+00  0.000000e+00  0.000000e+00
       124      pv              7.779            -15.198             -5.201  0.000000e+00  0.000000e+00  0.000000e+00
       126      pv             10.879            -15.192             -5.201  0.000000e+00  0.000000e+00  0.000000e+00
       129      pv              3.134            -17.892             -5.201  0.000000e+00  0.000000e+00  0.000000e+00
       131      pv              6.234            -17.886             -5.201  0.000000e+00  0.000000e+00  0.000000e+00
       133      pv              9.334             -17.88             -5.201  0.000000e+00  0.000000e+00  0.000000e+00
       135      pv             12.434            -17.874             -5.201  0.000000e+00  0.000000e+00  0.000000e+00
       136      pv               1.59             -20.58             -5.201  0.000000e+00  0.000000e+00  0.000000e+00
       138      pv               4.69            -20.574             -5.201  0.000000e+00  0.000000e+00  0.000000e+00
       140      pv               7.79            -20.568             -5.201  0.000000e+00  0.000000e+00  0.000000e+00
       142      pv              10.89            -20.562             -5.201  0.000000e+00  0.000000e+00  0.000000e+00
       145      pv              3.145            -23.261             -5.201  0.000000e+00  0.000000e+00  0.000000e+00
       147      pv              6.245            -23.255             -5.201  0.000000e+00  0.000000e+00  0.000000e+00
       149      pv              9.345            -23.249             -5.201  0.000000e+00  0.000000e+00  0.000000e+00
       151      pv             12.445            -23.243             -5.201  0.000000e+00  0.000000e+00  0.000000e+00
       152      pv                1.6            -25.949             -5.201  0.000000e+00  0.000000e+00  0.000000e+00
       154      pv                4.7            -25.943             -5.201  0.000000e+00  0.000000e+00  0.000000e+00
       156      pv                7.8            -25.937             -5.201  0.000000e+00  0.000000e+00  0.000000e+00
       158      pv               10.9            -25.931             -5.201  0.000000e+00  0.000000e+00  0.000000e+00
       400      pv                3.1              0.006             -4.161  0.000000e+00  0.000000e+00  0.000000e+00
       401      pv                6.2              0.012             -4.161  0.000000e+00  0.000000e+00  0.000000e+00
       402      pv                9.3              0.018             -4.161  0.000000e+00  0.000000e+00  0.000000e+00
       403      pv               12.4              0.024             -4.161  0.000000e+00  0.000000e+00  0.000000e+00
       404      pv              1.555             -2.682             -4.161  0.000000e+00  0.000000e+00  0.000000e+00
       405      pv              4.655             -2.676             -4.161  0.000000e+00  0.000000e+00  0.000000e+00
       406      pv              7.755              -2.67             -4.161  0.000000e+00  0.000000e+00  0.000000e+00
       407      pv             10.855             -2.664             -4.161  0.000000e+00  0.000000e+00  0.000000e+00
       408      pv               3.11             -5.363             -4.161  0.000000e+00  0.000000e+00  0.000000e+00
       409      pv               6.21             -5.357             -4.161  0.000000e+00  0.000000e+00  0.000000e+00
       410      pv               9.31             -5.351             -4.161  0.000000e+00  0.000000e+00  0.000000e+00
       411      pv              12.41             -5.345             -4.161  0.000000e+00  0.000000e+00  0.000000e+00
       412      pv              1.566             -8.051             -4.161  0.000000e+00  0.000000e+00  0.000000e+00
       413      pv              4.666             -8.045             -4.161  0.000000e+00  0.000000e+00  0.000000e+00
       414      pv              7.766             -8.039             -4.161  0.000000e+00  0.000000e+00  0.000000e+00
       415      pv             10.866             -8.033             -4.161  0.000000e+00  0.000000e+00  0.000000e+00
       416      pv              3.121            -10.733             -4.161  0.000000e+00  0.000000e+00  0.000000e+00
       417      pv              6.221            -10.727             -4.161  0.000000e+00  0.000000e+00  0.000000e+00
       418      pv              9.321            -10.721             -4.161  0.000000e+00  0.000000e+00  0.000000e+00
       419      pv             12.421            -10.715             -4.161  0.000000e+00  0.000000e+00  0.000000e+00
       420      pv              1.576             -13.42             -4.161  0.000000e+00  0.000000e+00  0.000000e+00
       421      pv              4.676            -13.414             -4.161  0.000000e+00  0.000000e+00  0.000000e+00
       422      pv              7.776            -13.408             -4.161  0.000000e+00  0.000000e+00  0.000000e+00
       423      pv             10.876            -13.402             -4.161  0.000000e+00  0.000000e+00  0.000000e+00
       424      pv              3.131            -16.102             -4.161  0.000000e+00  0.000000e+00  0.000000e+00
       425      pv              6.231            -16.096             -4.161  0.000000e+00  0.000000e+00  0.000000e+00
       426      pv              9.331             -16.09             -4.161  0.000000e+00  0.000000e+00  0.000000e+00
       427      pv             12.431            -16.084             -4.161  0.000000e+00  0.000000e+00  0.000000e+00
       428      pv              1.586             -18.79             -4.161  0.000000e+00  0.000000e+00  0.000000e+00
       429      pv              4.686            -18.784             -4.161  0.000000e+00  0.000000e+00  0.000000e+00
       430      pv              7.786            -18.778             -4.161  0.000000e+00  0.000000e+00  0.000000e+00
       431      pv             10.886            -18.772             -4.161  0.000000e+00  0.000000e+00  0.000000e+00
       432      pv              3.141            -21.471             -4.161  0.000000e+00  0.000000e+00  0.000000e+00
       433      pv              6.241            -21.465             -4.161  0.000000e+00  0.000000e+00  0.000000e+00
       434      pv              9.341            -21.459             -4.161  0.000000e+00  0.000000e+00  0.000000e+00
       435      pv             12.441            -21.453             -4.161  0.000000e+00  0.000000e+00  0.000000e+00
       436      pv              1.597            -24.159             -4.161  0.000000e+00  0.000000e+00  0.000000e+00
       437      pv              4.697            -24.153             -4.161  0.000000e+00  0.000000e+00  0.000000e+00
       438      pv              7.797            -24.147             -4.161  0.000000e+00  0.000000e+00  0.000000e+00
       439      pv             10.897            -24.141             -4.161  0.000000e+00  0.000000e+00  0.000000e+00
       240      pv              1.552             -0.892            -15.604  0.000000e+00  0.000000e+00  0.000000e+00
       242      pv              4.652             -0.886            -15.604  0.000000e+00  0.000000e+00  0.000000e+00
       244      pv              7.752              -0.88            -15.604  0.000000e+00  0.000000e+00  0.000000e+00
       246      pv             10.852             -0.874            -15.604  0.000000e+00  0.000000e+00  0.000000e+00
       249      pv              3.107             -3.573            -15.604  0.000000e+00  0.000000e+00  0.000000e+00
       251      pv              6.207             -3.568            -15.604  0.000000e+00  0.000000e+00  0.000000e+00
       253      pv              9.307             -3.562            -15.604  0.000000e+00  0.000000e+00  0.000000e+00
       255      pv             12.407             -3.556            -15.604  0.000000e+00  0.000000e+00  0.000000e+00
       256      pv              1.562             -6.261            -15.604  0.000000e+00  0.000000e+00  0.000000e+00
       258      pv              4.662             -6.255            -15.604  0.000000e+00  0.000000e+00  0.000000e+00
       260      pv              7.762             -6.249            -15.604  0.000000e+00  0.000000e+00  0.000000e+00
       262      pv             10.862             -6.243            -15.604  0.000000e+00  0.000000e+00  0.000000e+00
       265      pv              3.117             -8.943            -15.604  0.000000e+00  0.000000e+00  0.000000e+00
       267      pv              6.217             -8.937            -15.604  0.000000e+00  0.000000e+00  0.000000e+00
       269      pv              9.317             -8.931            -15.604  0.000000e+00  0.000000e+00  0.000000e+00
       271      pv             12.417             -8.925            -15.604  0.000000e+00  0.000000e+00  0.000000e+00
       272      pv              1.573            -11.631            -15.604  0.000000e+00  0.000000e+00  0.000000e+00
       274      pv              4.673            -11.625            -15.604  0.000000e+00  0.000000e+00  0.000000e+00
       276      pv              7.773            -11.619            -15.604  0.000000e+00  0.000000e+00  0.000000e+00
       278      pv             10.873            -11.613            -15.604  0.000000e+00  0.000000e+00  0.000000e+00
       281      pv              3.128            -14.312            -15.604  0.000000e+00  0.000000e+00  0.000000e+00
       283      pv              6.228            -14.306            -15.604  0.000000e+00  0.000000e+00  0.000000e+00
       285      pv              9.328              -14.3            -15.604  0.000000e+00  0.000000e+00  0.000000e+00
       287      pv             12.428            -14.294            -15.604  0.000000e+00  0.000000e+00  0.000000e+00
       288      pv              1.583                -17            -15.604  0.000000e+00  0.000000e+00  0.000000e+00
       290      pv              4.683            -16.994            -15.604  0.000000e+00  0.000000e+00  0.000000e+00
       292      pv              7.783            -16.988            -15.604  0.000000e+00  0.000000e+00  0.000000e+00
       294      pv             10.883            -16.982            -15.604  0.000000e+00  0.000000e+00  0.000000e+00
       297      pv              3.138            -19.682            -15.604  0.000000e+00  0.000000e+00  0.000000e+00
       299      pv              6.238            -19.676            -15.604  0.000000e+00  0.000000e+00  0.000000e+00
       301      pv              9.338             -19.67            -15.604  0.000000e+00  0.000000e+00  0.000000e+00
       303      pv             12.438            -19.664            -15.604  0.000000e+00  0.000000e+00  0.000000e+00
       304      pv              1.593            -22.369            -15.604  0.000000e+00  0.000000e+00  0.000000e+00
       306      pv              4.693            -22.363            -15.604  0.000000e+00  0.000000e+00  0.000000e+00
       308      pv              7.793            -22.357            -15.604  0.000000e+00  0.000000e+00  0.000000e+00
       310      pv             10.893            -22.351            -15.604  0.000000e+00  0.000000e+00  0.000000e+00
       313      pv              3.149            -25.051            -15.604  0.000000e+00  0.000000e+00  0.000000e+00
       315      pv              6.249            -25.045            -15.604  0.000000e+00  0.000000e+00  0.000000e+00
       317      pv              9.349            -25.039            -15.604  0.000000e+00  0.000000e+00  0.000000e+00
       319      pv             12.449            -25.033            -15.604  0.000000e+00  0.000000e+00  0.000000e+00
       321      pv              3.103             -1.784            -17.684  0.000000e+00  0.000000e+00  0.000000e+00
       323      pv              6.203             -1.778            -17.684  0.000000e+00  0.000000e+00  0.000000e+00
       325      pv              9.303             -1.772            -17.684  0.000000e+00  0.000000e+00  0.000000e+00
       327      pv             12.403             -1.766            -17.684  0.000000e+00  0.000000e+00  0.000000e+00
       328      pv              1.558             -4.472            -17.684  0.000000e+00  0.000000e+00  0.000000e+00
       330      pv              4.658             -4.466            -17.684  0.000000e+00  0.000000e+00  0.000000e+00
       332      pv              7.758              -4.46            -17.684  0.000000e+00  0.000000e+00  0.000000e+00
       334      pv             10.858             -4.454            -17.684  0.000000e+00  0.000000e+00  0.000000e+00
       337      pv              3.114             -7.153            -17.684  0.000000e+00  0.000000e+00  0.000000e+00
       339      pv              6.214             -7.147            -17.684  0.000000e+00  0.000000e+00  0.000000e+00
       341      pv              9.314             -7.141            -17.684  0.000000e+00  0.000000e+00  0.000000e+00
       343      pv             12.414             -7.135            -17.684  0.000000e+00  0.000000e+00  0.000000e+00
       344      pv              1.569             -9.841            -17.684  0.000000e+00  0.000000e+00  0.000000e+00
       346      pv              4.669             -9.835            -17.684  0.000000e+00  0.000000e+00  0.000000e+00
       348      pv              7.769             -9.829            -17.684  0.000000e+00  0.000000e+00  0.000000e+00
       350      pv             10.869             -9.823            -17.684  0.000000e+00  0.000000e+00  0.000000e+00
       353      pv              3.124            -12.523            -17.684  0.000000e+00  0.000000e+00  0.000000e+00
       355      pv              6.224            -12.517            -17.684  0.000000e+00  0.000000e+00  0.000000e+00
       357      pv              9.324            -12.511            -17.684  0.000000e+00  0.000000e+00  0.000000e+00
       359      pv             12.424            -12.505            -17.684  0.000000e+00  0.000000e+00  0.000000e+00
       360      pv              1.579             -15.21            -17.684  0.000000e+00  0.000000e+00  0.000000e+00
       362      pv              4.679            -15.204            -17.684  0.000000e+00  0.000000e+00  0.000000e+00
       364      pv              7.779            -15.198            -17.684  0.000000e+00  0.000000e+00  0.000000e+00
       366      pv             10.879            -15.192            -17.684  0.000000e+00  0.000000e+00  0.000000e+00
       369      pv              3.134            -17.892            -17.684  0.000000e+00  0.000000e+00  0.000000e+00
       371      pv              6.234            -17.886            -17.684  0.000000e+00  0.000000e+00  0.000000e+00
       373      pv              9.334             -17.88            -17.684  0.000000e+00  0.000000e+00  0.000000e+00
       375      pv             12.434            -17.874            -17.684  0.000000e+00  0.000000e+00  0.000000e+00
       376      pv               1.59             -20.58            -17.684  0.000000e+00  0.000000e+00  0.000000e+00
       378      pv               4.69            -20.574            -17.684  0.000000e+00  0.000000e+00  0.000000e+00
       380      pv               7.79            -20.568            -17.684  0.000000e+00  0.000000e+00  0.000000e+00
       382      pv              10.89            -20.562            -17.684  0.000000e+00  0.000000e+00  0.000000e+00
       385      pv              3.145            -23.261            -17.684  0.000000e+00  0.000000e+00  0.000000e+00
       387      pv              6.245            -23.255            -17.684  0.000000e+00  0.000000e+00  0.000000e+00
       389      pv              9.345            -23.249            -17.684  0.000000e+00  0.000000e+00  0.000000e+00
       391      pv             12.445            -23.243            -17.684  0.000000e+00  0.000000e+00  0.000000e+00
       392      pv                1.6            -25.949            -17.684  0.000000e+00  0.000000e+00  0.000000e+00
       394      pv                4.7            -25.943            -17.684  0.000000e+00  0.000000e+00  0.000000e+00
       396      pv                7.8            -25.937            -17.684  0.000000e+00  0.000000e+00  0.000000e+00
       398      pv               10.9            -25.931            -17.684  0.000000e+00  0.000000e+00  0.000000e+00
       520      pv                3.1              0.006            -16.644  0.000000e+00  0.000000e+00  0.000000e+00
       521      pv                6.2              0.012            -16.644  0.000000e+00  0.000000e+00  0.000000e+00
       522      pv                9.3              0.018            -16.644  0.000000e+00  0.000000e+00  0.000000e+00
       523      pv               12.4              0.024            -16.644  0.000000e+00  0.000000e+00  0.000000e+00
       524      pv              1.555             -2.682            -16.644  0.000000e+00  0.000000e+00  0.000000e+00
       525      pv              4.655             -2.676            -16.644  0.000000e+00  0.000000e+00  0.000000e+00
       526      pv              7.755              -2.67            -16.644  0.000000e+00  0.000000e+00  0.000000e+00
       527      pv             10.855             -2.664            -16.644  0.000000e+00  0.000000e+00  0.000000e+00
       528      pv               3.11             -5.363            -16.644  0.000000e+00  0.000000e+00  0.000000e+00
       529      pv               6.21             -5.357            -16.644  0.000000e+00  0.000000e+00  0.000000e+00
       530      pv               9.31             -5.351            -16.644  0.000000e+00  0.000000e+00  0.000000e+00
       531      pv              12.41             -5.345            -16.644  0.000000e+00  0.000000e+00  0.000000e+00
       532      pv              1.566             -8.051            -16.644  0.000000e+00  0.000000e+00  0.000000e+00
       533      pv              4.666             -8.045            -16.644  0.000000e+00  0.000000e+00  0.000000e+00
       534      pv              7.766             -8.039            -16.644  0.000000e+00  0.000000e+00  0.000000e+00
       535      pv             10.866             -8.033            -16.644  0.000000e+00  0.000000e+00  0.000000e+00
       536      pv              3.121            -10.733            -16.644  0.000000e+00  0.000000e+00  0.000000e+00
       537      pv              6.221            -10.727            -16.644  0.000000e+00  0.000000e+00  0.000000e+00
       538      pv              9.321            -10.721            -16.644  0.000000e+00  0.000000e+00  0.000000e+00
       539      pv             12.421            -10.715            -16.644  0.000000e+00  0.000000e+00  0.000000e+00
       540      pv              1.576             -13.42            -16.644  0.000000e+00  0.000000e+00  0.000000e+00
       541      pv              4.676            -13.414            -16.644  0.000000e+00  0.000000e+00  0.000000e+00
       542      pv              7.776            -13.408            -16.644  0.000000e+00  0.000000e+00  0.000000e+00
       543      pv             10.876            -13.402            -16.644  0.000000e+00  0.000000e+00  0.000000e+00
       544      pv              3.131            -16.102            -16.644  0.000000e+00  0.000000e+00  0.000000e+00
       545      pv              6.231            -16.096            -16.644  0.000000e+00  0.000000e+00  0.000000e+00
       546      pv              9.331             -16.09            -16.644  0.000000e+00  0.000000e+00  0.000000e+00
       547      pv             12.431            -16.084            -16.644  0.000000e+00  0.000000e+00  0.000000e+00
       548      pv              1.586             -18.79            -16.644  0.000000e+00  0.000000e+00  0.000000e+00
       549      pv              4.686            -18.784            -16.644  0.000000e+00  0.000000e+00  0.000000e+00
       550      pv              7.786            -18.778            -16.644  0.000000e+00  0.000000e+00  0.000000e+00
       551      pv             10.886            -18.772            -16.644  0.000000e+00  0.000000e+00  0.000000e+00
       552      pv              3.141            -21.471            -16.644  0.000000e+00  0.000000e+00  0.000000e+00
       553      pv              6.241            -21.465            -16.644  0.000000e+00  0.000000e+00  0.000000e+00
       554      pv              9.341            -21.459            -16.644  0.000000e+00  0.000000e+00  0.000000e+00
       555      pv             12.441            -21.453            -16.644  0.000000e+00  0.000000e+00  0.000000e+00
       556      pv              1.597            -24.159            -16.644  0.000000e+00  0.000000e+00  0.000000e+00
       557      pv              4.697            -24.153            -16.644  0.000000e+00  0.000000e+00  0.000000e+00
       558      pv              7.797            -24.147            -16.644  0.000000e+00  0.000000e+00  0.000000e+00
       559      pv             10.897            -24.141            -16.644  0.000000e+00  0.000000e+00  0.000000e+00
       160      pv              1.552             -0.892            -11.443  0.000000e+00  0.000000e+00  0.000000e+00
       162      pv              4.652             -0.886            -11.443  0.000000e+00  0.000000e+00  0.000000e+00
       164      pv              7.752              -0.88            -11.443  0.000000e+00  0.000000e+00  0.000000e+00
       166      pv             10.852             -0.874            -11.443  0.000000e+00  0.000000e+00  0.000000e+00
       169      pv              3.107             -3.573            -11.443  0.000000e+00  0.000000e+00  0.000000e+00
       171      pv              6.207             -3.568            -11.443  0.000000e+00  0.000000e+00  0.000000e+00