<OpenMD version=2>
  <MetaData>
  
molecule{
  name = "Pt";
  
  atom[0]{
     type="Pt_FQ";
     position( 0.0, 0.0, 0.0 );
  }
}
molecule{
  name = "O";
  
  atom[0]{
     type="O_FQ";
     position( 0.0, 0.0, 0.0 );
  }
}

component{
  type = "O";
  nMol = 600;
}
component{
  type = "Pt";
  nMol = 300;
}

flucQ {
  propagator = "Damped";
  dragCoefficient = 0.1;
}
targetTemp = 500.0;
targetPressure = 1.0;

outputFluctuatingCharges = "true";

forceField = "metalsFQ";
forceFieldFileName = "metalsFQ.frc";

ensemble = "NVE";
dt = 1.0;
runTime = 1e2;
cutoffRadius = 9;

statusTime = 1;
sampleTime = 10.0;
seed = 985456376;

useInitialExtendedSystemState="false";
useInitialTime="false";
tauThermostat = 1E3;
tauBarostat = 5E3;

  </MetaData>
  <Snapshot>
    <FrameData>
        Time: 0
        Hmat: {{ 22.43, 0, 0 }, { 0, 22.685, 0 }, { 0, 0, 18.828 }}
    </FrameData>
    <StuntDoubles>
         0      pv              0.942             -3.675             -1.569  0.000000e+00  0.000000e+00  0.000000e+00
         1      pv              3.544             -0.862             -1.569  0.000000e+00  0.000000e+00  0.000000e+00
         2      pv              5.428             -3.675             -1.569  0.000000e+00  0.000000e+00  0.000000e+00
         3      pv               8.03             -0.862             -1.569  0.000000e+00  0.000000e+00  0.000000e+00
         4      pv              9.914             -3.675             -1.569  0.000000e+00  0.000000e+00  0.000000e+00
         5      pv             12.516             -0.862             -1.569  0.000000e+00  0.000000e+00  0.000000e+00
         6      pv               14.4             -3.675             -1.569  0.000000e+00  0.000000e+00  0.000000e+00
         7      pv             17.002             -0.862             -1.569  0.000000e+00  0.000000e+00  0.000000e+00
         8      pv             18.886             -3.675             -1.569  0.000000e+00  0.000000e+00  0.000000e+00
         9      pv             21.488             -0.862             -1.569  0.000000e+00  0.000000e+00  0.000000e+00
        10      pv              0.942             -8.212             -1.569  0.000000e+00  0.000000e+00  0.000000e+00
        11      pv              3.544             -5.399             -1.569  0.000000e+00  0.000000e+00  0.000000e+00
        12      pv              5.428             -8.212             -1.569  0.000000e+00  0.000000e+00  0.000000e+00
        13      pv               8.03             -5.399             -1.569  0.000000e+00  0.000000e+00  0.000000e+00
        14      pv              9.914             -8.212             -1.569  0.000000e+00  0.000000e+00  0.000000e+00
        15      pv             12.516             -5.399             -1.569  0.000000e+00  0.000000e+00  0.000000e+00
        16      pv               14.4             -8.212             -1.569  0.000000e+00  0.000000e+00  0.000000e+00
        17      pv             17.002             -5.399             -1.569  0.000000e+00  0.000000e+00  0.000000e+00
        18      pv             18.886             -8.212             -1.569  0.000000e+00  0.000000e+00  0.000000e+00
        19      pv             21.488             -5.399             -1.569  0.000000e+00  0.000000e+00  0.000000e+00
        20      pv              0.942            -12.749             -1.569  0.000000e+00  0.000000e+00  0.000000e+00
        21      pv              3.544             -9.936             -1.569  0.000000e+00  0.000000e+00  0.000000e+00
        22      pv              5.428            -12.749             -1.569  0.000000e+00  0.000000e+00  0.000000e+00
        23      pv               8.03             -9.936             -1.569  0.000000e+00  0.000000e+00  0.000000e+00
        24      pv              9.914            -12.749             -1.569  0.000000e+00  0.000000e+00  0.000000e+00
        25      pv             12.516             -9.936             -1.569  0.000000e+00  0.000000e+00  0.000000e+00
        26      pv               14.4            -12.749             -1.569  0.000000e+00  0.000000e+00  0.000000e+00
        27      pv             17.002             -9.936             -1.569  0.000000e+00  0.000000e+00  0.000000e+00
        28      pv             18.886            -12.749             -1.569  0.000000e+00  0.000000e+00  0.000000e+00
        29      pv             21.488             -9.936             -1.569  0.000000e+00  0.000000e+00  0.000000e+00
        30      pv              0.942            -17.286             -1.569  0.000000e+00  0.000000e+00  0.000000e+00
        31      pv              3.544            -14.473             -1.569  0.000000e+00  0.000000e+00  0.000000e+00
        32      pv              5.428            -17.286             -1.569  0.000000e+00  0.000000e+00  0.000000e+00
        33      pv               8.03            -14.473             -1.569  0.000000e+00  0.000000e+00  0.000000e+00
        34      pv              9.914            -17.286             -1.569  0.000000e+00  0.000000e+00  0.000000e+00
        35      pv             12.516            -14.473             -1.569  0.000000e+00  0.000000e+00  0.000000e+00
        36      pv               14.4            -17.286             -1.569  0.000000e+00  0.000000e+00  0.000000e+00
        37      pv             17.002            -14.473             -1.569  0.000000e+00  0.000000e+00  0.000000e+00
        38      pv             18.886            -17.286             -1.569  0.000000e+00  0.000000e+00  0.000000e+00
        39      pv             21.488            -14.473             -1.569  0.000000e+00  0.000000e+00  0.000000e+00
        40      pv              0.942            -21.823             -1.569  0.000000e+00  0.000000e+00  0.000000e+00
        41      pv              3.544             -19.01             -1.569  0.000000e+00  0.000000e+00  0.000000e+00
        42      pv              5.428            -21.823             -1.569  0.000000e+00  0.000000e+00  0.000000e+00
        43      pv               8.03             -19.01             -1.569  0.000000e+00  0.000000e+00  0.000000e+00
        44      pv              9.914            -21.823             -1.569  0.000000e+00  0.000000e+00  0.000000e+00
        45      pv             12.516             -19.01             -1.569  0.000000e+00  0.000000e+00  0.000000e+00
        46      pv               14.4            -21.823             -1.569  0.000000e+00  0.000000e+00  0.000000e+00
        47      pv             17.002             -19.01             -1.569  0.000000e+00  0.000000e+00  0.000000e+00
        48      pv             18.886            -21.823             -1.569  0.000000e+00  0.000000e+00  0.000000e+00
        49      pv             21.488             -19.01             -1.569  0.000000e+00  0.000000e+00  0.000000e+00
        50      pv              1.301             -1.406             -3.138  0.000000e+00  0.000000e+00  0.000000e+00
        51      pv              3.185             -3.131             -3.138  0.000000e+00  0.000000e+00  0.000000e+00
        52      pv              0.942             -3.675             -4.707  0.000000e+00  0.000000e+00  0.000000e+00
        53      pv              3.544             -0.862             -4.707  0.000000e+00  0.000000e+00  0.000000e+00
        54      pv              5.787             -1.406             -3.138  0.000000e+00  0.000000e+00  0.000000e+00
        55      pv              7.671             -3.131             -3.138  0.000000e+00  0.000000e+00  0.000000e+00
        56      pv              5.428             -3.675             -4.707  0.000000e+00  0.000000e+00  0.000000e+00
        57      pv               8.03             -0.862             -4.707  0.000000e+00  0.000000e+00  0.000000e+00
        58      pv             10.273             -1.406             -3.138  0.000000e+00  0.000000e+00  0.000000e+00
        59      pv             12.157             -3.131             -3.138  0.000000e+00  0.000000e+00  0.000000e+00
        60      pv              9.914             -3.675             -4.707  0.000000e+00  0.000000e+00  0.000000e+00
        61      pv             12.516             -0.862             -4.707  0.000000e+00  0.000000e+00  0.000000e+00
        62      pv             14.759             -1.406             -3.138  0.000000e+00  0.000000e+00  0.000000e+00
        63      pv             16.643             -3.131             -3.138  0.000000e+00  0.000000e+00  0.000000e+00
        64      pv               14.4             -3.675             -4.707  0.000000e+00  0.000000e+00  0.000000e+00
        65      pv             17.002             -0.862             -4.707  0.000000e+00  0.000000e+00  0.000000e+00
        66      pv             19.245             -1.406             -3.138  0.000000e+00  0.000000e+00  0.000000e+00
        67      pv             21.129             -3.131             -3.138  0.000000e+00  0.000000e+00  0.000000e+00
        68      pv             18.886             -3.675             -4.707  0.000000e+00  0.000000e+00  0.000000e+00
        69      pv             21.488             -0.862             -4.707  0.000000e+00  0.000000e+00  0.000000e+00
        70      pv              1.301             -5.943             -3.138  0.000000e+00  0.000000e+00  0.000000e+00
        71      pv              3.185             -7.668             -3.138  0.000000e+00  0.000000e+00  0.000000e+00
        72      pv              0.942             -8.212             -4.707  0.000000e+00  0.000000e+00  0.000000e+00
        73      pv              3.544             -5.399             -4.707  0.000000e+00  0.000000e+00  0.000000e+00
        74      pv              5.787             -5.943             -3.138  0.000000e+00  0.000000e+00  0.000000e+00
        75      pv              7.671             -7.668             -3.138  0.000000e+00  0.000000e+00  0.000000e+00
        76      pv              5.428             -8.212             -4.707  0.000000e+00  0.000000e+00  0.000000e+00
        77      pv               8.03             -5.399             -4.707  0.000000e+00  0.000000e+00  0.000000e+00
        78      pv             10.273             -5.943             -3.138  0.000000e+00  0.000000e+00  0.000000e+00
        79      pv             12.157             -7.668             -3.138  0.000000e+00  0.000000e+00  0.000000e+00
        80      pv              9.914             -8.212             -4.707  0.000000e+00  0.000000e+00  0.000000e+00
        81      pv             12.516             -5.399             -4.707  0.000000e+00  0.000000e+00  0.000000e+00
        82      pv             14.759             -5.943             -3.138  0.000000e+00  0.000000e+00  0.000000e+00
        83      pv             16.643             -7.668             -3.138  0.000000e+00  0.000000e+00  0.000000e+00
        84      pv               14.4             -8.212             -4.707  0.000000e+00  0.000000e+00  0.000000e+00
        85      pv             17.002             -5.399             -4.707  0.000000e+00  0.000000e+00  0.000000e+00
        86      pv             19.245             -5.943             -3.138  0.000000e+00  0.000000e+00  0.000000e+00
        87      pv             21.129             -7.668             -3.138  0.000000e+00  0.000000e+00  0.000000e+00
        88      pv             18.886             -8.212             -4.707  0.000000e+00  0.000000e+00  0.000000e+00
        89      pv             21.488             -5.399             -4.707  0.000000e+00  0.000000e+00  0.000000e+00
        90      pv              1.301             -10.48             -3.138  0.000000e+00  0.000000e+00  0.000000e+00
        91      pv              3.185            -12.205             -3.138  0.000000e+00  0.000000e+00  0.000000e+00
        92      pv              0.942            -12.749             -4.707  0.000000e+00  0.000000e+00  0.000000e+00
        93      pv              3.544             -9.936             -4.707  0.000000e+00  0.000000e+00  0.000000e+00
        94      pv              5.787             -10.48             -3.138  0.000000e+00  0.000000e+00  0.000000e+00
        95      pv              7.671            -12.205             -3.138  0.000000e+00  0.000000e+00  0.000000e+00
        96      pv              5.428            -12.749             -4.707  0.000000e+00  0.000000e+00  0.000000e+00
        97      pv               8.03             -9.936             -4.707  0.000000e+00  0.000000e+00  0.000000e+00
        98      pv             10.273             -10.48             -3.138  0.000000e+00  0.000000e+00  0.000000e+00
        99      pv             12.157            -12.205             -3.138  0.000000e+00  0.000000e+00  0.000000e+00
       100      pv              9.914            -12.749             -4.707  0.000000e+00  0.000000e+00  0.000000e+00
       101      pv             12.516             -9.936             -4.707  0.000000e+00  0.000000e+00  0.000000e+00
       102      pv             14.759             -10.48             -3.138  0.000000e+00  0.000000e+00  0.000000e+00
       103      pv             16.643            -12.205             -3.138  0.000000e+00  0.000000e+00  0.000000e+00
       104      pv               14.4            -12.749             -4.707  0.000000e+00  0.000000e+00  0.000000e+00
       105      pv             17.002             -9.936             -4.707  0.000000e+00  0.000000e+00  0.000000e+00
       106      pv             19.245             -10.48             -3.138  0.000000e+00  0.000000e+00  0.000000e+00
       107      pv             21.129            -12.205             -3.138  0.000000e+00  0.000000e+00  0.000000e+00
       108      pv             18.886            -12.749             -4.707  0.000000e+00  0.000000e+00  0.000000e+00
       109      pv             21.488             -9.936             -4.707  0.000000e+00  0.000000e+00  0.000000e+00
       110      pv              1.301            -15.017             -3.138  0.000000e+00  0.000000e+00  0.000000e+00
       111      pv              3.185            -16.742             -3.138  0.000000e+00  0.000000e+00  0.000000e+00
       112      pv              0.942            -17.286             -4.707  0.000000e+00  0.000000e+00  0.000000e+00
       113      pv              3.544            -14.473             -4.707  0.000000e+00  0.000000e+00  0.000000e+00
       114      pv              5.787            -15.017             -3.138  0.000000e+00  0.000000e+00  0.000000e+00
       115      pv              7.671            -16.742             -3.138  0.000000e+00  0.000000e+00  0.000000e+00
       116      pv              5.428            -17.286             -4.707  0.000000e+00  0.000000e+00  0.000000e+00
       117      pv               8.03            -14.473             -4.707  0.000000e+00  0.000000e+00  0.000000e+00
       118      pv             10.273            -15.017             -3.138  0.000000e+00  0.000000e+00  0.000000e+00
       119      pv             12.157            -16.742             -3.138  0.000000e+00  0.000000e+00  0.000000e+00
       120      pv              9.914            -17.286             -4.707  0.000000e+00  0.000000e+00  0.000000e+00
       121      pv             12.516            -14.473             -4.707  0.000000e+00  0.000000e+00  0.000000e+00
       122      pv             14.759            -15.017             -3.138  0.000000e+00  0.000000e+00  0.000000e+00
       123      pv             16.643            -16.742             -3.138  0.000000e+00  0.000000e+00  0.000000e+00
       124      pv               14.4            -17.286             -4.707  0.000000e+00  0.000000e+00  0.000000e+00
       125      pv             17.002            -14.473             -4.707  0.000000e+00  0.000000e+00  0.000000e+00
       126      pv             19.245            -15.017             -3.138  0.000000e+00  0.000000e+00  0.000000e+00
       127      pv             21.129            -16.742             -3.138  0.000000e+00  0.000000e+00  0.000000e+00
       128      pv             18.886            -17.286             -4.707  0.000000e+00  0.000000e+00  0.000000e+00
       129      pv             21.488            -14.473             -4.707  0.000000e+00  0.000000e+00  0.000000e+00
       130      pv              1.301            -19.554             -3.138  0.000000e+00  0.000000e+00  0.000000e+00
       131      pv              3.185            -21.279             -3.138  0.000000e+00  0.000000e+00  0.000000e+00
       132      pv              0.942            -21.823             -4.707  0.000000e+00  0.000000e+00  0.000000e+00
       133      pv              3.544             -19.01             -4.707  0.000000e+00  0.000000e+00  0.000000e+00
       134      pv              5.787            -19.554             -3.138  0.000000e+00  0.000000e+00  0.000000e+00
       135      pv              7.671            -21.279             -3.138  0.000000e+00  0.000000e+00  0.000000e+00
       136      pv              5.428            -21.823             -4.707  0.000000e+00  0.000000e+00  0.000000e+00
       137      pv               8.03             -19.01             -4.707  0.000000e+00  0.000000e+00  0.000000e+00
       138      pv             10.273            -19.554             -3.138  0.000000e+00  0.000000e+00  0.000000e+00
       139      pv             12.157            -21.279             -3.138  0.000000e+00  0.000000e+00  0.000000e+00
       140      pv              9.914            -21.823             -4.707  0.000000e+00  0.000000e+00  0.000000e+00
       141      pv             12.516             -19.01             -4.707  0.000000e+00  0.000000e+00  0.000000e+00
       142      pv             14.759            -19.554             -3.138  0.000000e+00  0.000000e+00  0.000000e+00
       143      pv             16.643            -21.279             -3.138  0.000000e+00  0.000000e+00  0.000000e+00
       144      pv               14.4            -21.823             -4.707  0.000000e+00  0.000000e+00  0.000000e+00
       145      pv             17.002             -19.01             -4.707  0.000000e+00  0.000000e+00  0.000000e+00
       146      pv             19.245            -19.554             -3.138  0.000000e+00  0.000000e+00  0.000000e+00
       147      pv             21.129            -21.279             -3.138  0.000000e+00  0.000000e+00  0.000000e+00
       148      pv             18.886            -21.823             -4.707  0.000000e+00  0.000000e+00  0.000000e+00
       149      pv             21.488             -19.01             -4.707  0.000000e+00  0.000000e+00  0.000000e+00
       150      pv              1.301             -1.406             -6.276  0.000000e+00  0.000000e+00  0.000000e+00
       151      pv              3.185             -3.131             -6.276  0.000000e+00  0.000000e+00  0.000000e+00
       152      pv              0.942             -3.675             -7.845  0.000000e+00  0.000000e+00  0.000000e+00
       153      pv              3.544             -0.862             -7.845  0.000000e+00  0.000000e+00  0.000000e+00
       154      pv              5.787             -1.406             -6.276  0.000000e+00  0.000000e+00  0.000000e+00
       155      pv              7.671             -3.131             -6.276  0.000000e+00  0.000000e+00  0.000000e+00
       156      pv              5.428             -3.675             -7.845  0.000000e+00  0.000000e+00  0.000000e+00
       157      pv               8.03             -0.862             -7.845  0.000000e+00  0.000000e+00  0.000000e+00
       158      pv             10.273             -1.406             -6.276  0.000000e+00  0.000000e+00  0.000000e+00
       159      pv             12.157             -3.131             -6.276  0.000000e+00  0.000000e+00  0.000000e+00
       160      pv              9.914             -3.675             -7.845  0.000000e+00  0.000000e+00  0.000000e+00
       161      pv             12.516             -0.862             -7.845  0.000000e+00  0.000000e+00  0.000000e+00
       162      pv             14.759             -1.406             -6.276  0.000000e+00  0.000000e+00  0.000000e+00
       163      pv             16.643             -3.131             -6.276  0.000000e+00  0.000000e+00  0.000000e+00
       164      pv               14.4             -3.675             -7.845  0.000000e+00  0.000000e+00  0.000000e+00
       165      pv             17.002             -0.862             -7.845  0.000000e+00  0.000000e+00  0.000000e+00
       166      pv             19.245             -1.406             -6.276  0.000000e+00  0.000000e+00  0.000000e+00
       167      pv             21.129             -3.131             -6.276  0.000000e+00  0.000000e+00  0.000000e+00
       168      pv             18.886             -3.675             -7.845  0.000000e+00  0.000000e+00  0.000000e+00
       169      pv             21.488             -0.862             -7.845  0.000000e+00  0.000000e+00  0.000000e+00
       170      pv              1.301             -5.943             -6.276  0.000000e+00  0.000000e+00  0.000000e+00
       171      pv              3.185             -7.668             -6.276  0.000000e+00  0.000000e+00  0.000000e+00
       172      pv              0.942             -8.212             -7.845  0.000000e+00  0.000000e+00  0.000000e+00
       173      pv              3.544             -5.399             -7.845  0.000000e+00  0.000000e+00  0.000000e+00
       174      pv              5.787             -5.943             -6.276  0.000000e+00  0.000000e+00  0.000000e+00
       175      pv              7.671             -7.668             -6.276  0.000000e+00  0.000000e+00  0.000000e+00
       176      pv              5.428             -8.212             -7.845  0.000000e+00  0.000000e+00  0.000000e+00
       177      pv               8.03             -5.399             -7.845  0.000000e+00  0.000000e+00  0.000000e+00
       178      pv             10.273             -5.943             -6.276  0.000000e+00  0.000000e+00  0.000000e+00
       179      pv             12.157             -7.668             -6.276  0.000000e+00  0.000000e+00  0.000000e+00
       180      pv              9.914             -8.212             -7.845  0.000000e+00  0.000000e+00  0.000000e+00
       181      pv             12.516             -5.399             -7.845  0.000000e+00  0.000000e+00  0.000000e+00
       182      pv             14.759             -5.943             -6.276  0.000000e+00  0.000000e+00  0.000000e+00
       183      pv             16.643             -7.668             -6.276  0.000000e+00  0.000000e+00  0.000000e+00
       184      pv               14.4             -8.212             -7.845  0.000000e+00  0.000000e+00  0.000000e+00
       185      pv             17.002             -5.399             -7.845  0.000000e+00  0.000000e+00  0.000000e+00
       186      pv             19.245             -5.943             -6.276  0.000000e+00  0.000000e+00  0.000000e+00
       187      pv             21.129             -7.668             -6.276  0.000000e+00  0.000000e+00  0.000000e+00
       188      pv             18.886             -8.212             -7.845  0.000000e+00  0.000000e+00  0.000000e+00
       189      pv             21.488             -5.399             -7.845  0.000000e+00  0.000000e+00  0.000000e+00
       190      pv              1.301             -10.48             -6.276  0.000000e+00  0.000000e+00  0.000000e+00
       191      pv              3.185            -12.205             -6.276  0.000000e+00  0.000000e+00  0.000000e+00
       192      pv              0.942            -12.749             -7.845  0.000000e+00  0.000000e+00  0.000000e+00
       193      pv              3.544             -9.936             -7.845  0.000000e+00  0.000000e+00  0.000000e+00
       194      pv              5.787             -10.48             -6.276  0.000000e+00  0.000000e+00  0.000000e+00
       195      pv              7.671            -12.205             -6.276  0.000000e+00  0.000000e+00  0.000000e+00
       196      pv              5.428            -12.749             -7.845  0.000000e+00  0.000000e+00  0.000000e+00
       197      pv               8.03             -9.936             -7.845  0.000000e+00  0.000000e+00  0.000000e+00
       198      pv             10.273             -10.48             -6.276  0.000000e+00  0.000000e+00  0.000000e+00
       199      pv             12.157            -12.205             -6.276  0.000000e+00  0.000000e+00  0.000000e+00
       200      pv              9.914            -12.749             -7.845  0.000000e+00  0.000000e+00  0.000000e+00
       201      pv             12.516             -9.936             -7.845  0.000000e+00  0.000000e+00  0.000000e+00
       202      pv             14.759             -10.48             -6.276  0.000000e+00  0.000000e+00  0.000000e+00
       203      pv             16.643            -12.205             -6.276  0.000000e+00  0.000000e+00  0.000000e+00
       204      pv               14.4            -12.749             -7.845  0.000000e+00  0.000000e+00  0.000000e+00
       205      pv             17.002             -9.936             -7.845  0.000000e+00  0.000000e+00  0.000000e+00
       206      pv             19.245             -10.48             -6.276  0.000000e+00  0.000000e+00  0.000000e+00
       207      pv             21.129            -12.205             -6.276  0.000000e+00  0.000000e+00  0.000000e+00
       208      pv             18.886            -12.749             -7.845  0.000000e+00  0.000000e+00  0.000000e+00
       209      pv             21.488             -9.936             -7.845  0.000000e+00  0.000000e+00  0.000000e+00
       210      pv              1.301            -15.017             -6.276  0.000000e+00  0.000000e+00  0.000000e+00
       211      pv              3.185            -16.742             -6.276  0.000000e+00  0.000000e+00  0.000000e+00
       212      pv              0.942            -17.286             -7.845  0.000000e+00  0.000000e+00  0.000000e+00
       213      pv              3.544            -14.473             -7.845  0.000000e+00  0.000000e+00  0.000000e+00
       214      pv              5.787            -15.017             -6.276  0.000000e+00  0.000000e+00  0.000000e+00
       215      pv              7.671            -16.742             -6.276  0.000000e+00  0.000000e+00  0.000000e+00
       216      pv              5.428            -17.286             -7.845  0.000000e+00  0.000000e+00  0.000000e+00
       217      pv               8.03            -14.473             -7.845  0.000000e+00  0.000000e+00  0.000000e+00
       218      pv             10.273            -15.017             -6.276  0.000000e+00  0.000000e+00  0.000000e+00
       219      pv             12.157            -16.742             -6.276  0.000000e+00  0.000000e+00  0.000000e+00
       220      pv              9.914            -17.286             -7.845  0.000000e+00  0.000000e+00  0.000000e+00
       221      pv             12.516            -14.473             -7.845  0.000000e+00  0.000000e+00  0.000000e+00
       222      pv             14.759            -15.017             -6.276  0.000000e+00  0.000000e+00  0.000000e+00
       223      pv             16.643            -16.742             -6.276  0.000000e+00  0.000000e+00  0.000000e+00
       224      pv               14.4            -17.286             -7.845  0.000000e+00  0.000000e+00  0.000000e+00
       225      pv             17.002            -14.473             -7.845  0.000000e+00  0.000000e+00  0.000000e+00
       226      pv             19.245            -15.017             -6.276  0.000000e+00  0.000000e+00  0.000000e+00
       227      pv             21.129            -16.742             -6.276  0.000000e+00  0.000000e+00  0.000000e+00
       228      pv             18.886            -17.286             -7.845  0.000000e+00  0.000000e+00  0.000000e+00
       229      pv             21.488            -14.473             -7.845  0.000000e+00  0.000000e+00  0.000000e+00
       230      pv              1.301            -19.554             -6.276  0.000000e+00  0.000000e+00  0.000000e+00
       231      pv              3.185            -21.279             -6.276  0.000000e+00  0.000000e+00  0.000000e+00
       232      pv              0.942            -21.823             -7.845  0.000000e+00  0.000000e+00  0.000000e+00
       233      pv              3.544             -19.01             -7.845  0.000000e+00  0.000000e+00  0.000000e+00
       234      pv              5.787            -19.554             -6.276  0.000000e+00  0.000000e+00  0.000000e+00
       235      pv              7.671            -21.279             -6.276  0.000000e+00  0.000000e+00  0.000000e+00
       236      pv              5.428            -21.823             -7.845  0.000000e+00  0.000000e+00  0.000000e+00
       237      pv               8.03             -19.01             -7.845  0.000000e+00  0.000000e+00  0.000000e+00
       238      pv             10.273            -19.554             -6.276  0.000000e+00  0.000000e+00  0.000000e+00
       239      pv             12.157            -21.279             -6.276  0.000000e+00  0.000000e+00  0.000000e+00
       240      pv              9.914            -21.823             -7.845  0.000000e+00  0.000000e+00  0.000000e+00
       241      pv             12.516             -19.01             -7.845  0.000000e+00  0.000000e+00  0.000000e+00
       242      pv             14.759            -19.554             -6.276  0.000000e+00  0.000000e+00  0.000000e+00
       243      pv             16.643            -21.279             -6.276  0.000000e+00  0.000000e+00  0.000000e+00
       244      pv               14.4            -21.823             -7.845  0.000000e+00  0.000000e+00  0.000000e+00
       245      pv             17.002             -19.01             -7.845  0.000000e+00  0.000000e+00  0.000000e+00