<OpenMD version=1>
  <MetaData>

molecule{
  name = "Cu";

  atom[0]{
    type="Cu_FQ";
    position( 0.0, 0.0, 0.0 );
  }
}

molecule{
  name = "O";

  atom[0]{
    type="O_FQ";
    position( 0.0, 0.0, 0.0 );
  }
}

component{
  type = "Cu";
  nMol = 1274;
}
component{
  type = "O";
  nMol = 1274;
}
flucQ {
  propagator = "Damped";
  targetTemp = 1;
  dragCoefficient = 1;
}
forceField = "DR-EAM";
forceFieldFileName = "DR-EAM.v2.frc";

outputFluctuatingCharges = true;
outputElectricField = true;
outputDensity = true;

ensemble = NVT;
dt = 0.1;
runTime = 1;
sampleTime = 1;
statusTime = 1;
targetTemp = 10;
tauThermostat = 100;

cutoffMethod = "shifted_force";
cutoffRadius = 12;
electrostaticScreeningMethod = "DAMPED";
dampingAlpha = 0.105;

statFileFormat = "TIME|TOTAL_ENERGY|POTENTIAL_ENERGY|KINETIC_ENERGY|TEMPERATURE|PRESSURE|VOLUME|CONSERVED_QUANTITY|SYSTEM_DIPOLE";

  </MetaData>
  <Snapshot>
    <FrameData>
        Time: 0
        Hmat: {{ 29.858965, 0, 0 }, { 0, 28.313374, 0 }, { 1.4631855, 0, 33.477597 }}
  Thermostat: 0 , 0
    Barostat: {{ 0, 0, 0 }, { 0, 0, 0 }, { 0, 0, 0 }}
    </FrameData>
    <StuntDoubles>
	0	pv	-11.010031	-11.167373	-15.467398	0	0	0
	1	pv	-11.23537	-11.167373	-10.311599	0	0	0
	2	pv	-11.460708	-11.167373	-5.155799	0	0	0
	3	pv	-11.686046	-11.167373	0.0	0	0	0
	4	pv	-11.911384	-11.167373	5.155799	0	0	0
	5	pv	-12.136722	-11.167373	10.311599	0	0	0
	6	pv	-12.362061	-11.167373	15.467398	0	0	0
	7	pv	-11.010031	-7.10651	-15.467398	0	0	0
	8	pv	-11.23537	-7.10651	-10.311599	0	0	0
	9	pv	-11.460708	-7.10651	-5.155799	0	0	0
	10	pv	-11.686046	-7.10651	0.0	0	0	0
	11	pv	-11.911384	-7.10651	5.155799	0	0	0
	12	pv	-12.136722	-7.10651	10.311599	0	0	0
	13	pv	-12.362061	-7.10651	15.467398	0	0	0
	14	pv	-11.010031	-3.045647	-15.467398	0	0	0
	15	pv	-11.23537	-3.045647	-10.311599	0	0	0
	16	pv	-11.460708	-3.045647	-5.155799	0	0	0
	17	pv	-11.686046	-3.045647	0.0	0	0	0
	18	pv	-11.911384	-3.045647	5.155799	0	0	0
	19	pv	-12.136722	-3.045647	10.311599	0	0	0
	20	pv	-12.362061	-3.045647	15.467398	0	0	0
	21	pv	-11.010031	1.015216	-15.467398	0	0	0
	22	pv	-11.23537	1.015216	-10.311599	0	0	0
	23	pv	-11.460708	1.015216	-5.155799	0	0	0
	24	pv	-11.686046	1.015216	0.0	0	0	0
	25	pv	-11.911384	1.015216	5.155799	0	0	0
	26	pv	-12.136722	1.015216	10.311599	0	0	0
	27	pv	-12.362061	1.015216	15.467398	0	0	0
	28	pv	-11.010031	5.076079	-15.467398	0	0	0
	29	pv	-11.23537	5.076079	-10.311599	0	0	0
	30	pv	-11.460708	5.076079	-5.155799	0	0	0
	31	pv	-11.686046	5.076079	0.0	0	0	0
	32	pv	-11.911384	5.076079	5.155799	0	0	0
	33	pv	-12.136722	5.076079	10.311599	0	0	0
	34	pv	-12.362061	5.076079	15.467398	0	0	0
	35	pv	-11.010031	9.136942	-15.467398	0	0	0
	36	pv	-11.23537	9.136942	-10.311599	0	0	0
	37	pv	-11.460708	9.136942	-5.155799	0	0	0
	38	pv	-11.686046	9.136942	0.0	0	0	0
	39	pv	-11.911384	9.136942	5.155799	0	0	0
	40	pv	-12.136722	9.136942	10.311599	0	0	0
	41	pv	-12.362061	9.136942	15.467398	0	0	0
	42	pv	-11.010031	13.197804	-15.467398	0	0	0
	43	pv	-11.23537	13.197804	-10.311599	0	0	0
	44	pv	-11.460708	13.197804	-5.155799	0	0	0
	45	pv	-11.686046	13.197804	0.0	0	0	0
	46	pv	-11.911384	13.197804	5.155799	0	0	0
	47	pv	-12.136722	13.197804	10.311599	0	0	0
	48	pv	-12.362061	13.197804	15.467398	0	0	0
	49	pv	-6.76056	-11.167373	-15.467398	0	0	0
	50	pv	-6.985898	-11.167373	-10.311599	0	0	0
	51	pv	-7.211236	-11.167373	-5.155799	0	0	0
	52	pv	-7.436574	-11.167373	0.0	0	0	0
	53	pv	-7.661912	-11.167373	5.155799	0	0	0
	54	pv	-7.88725	-11.167373	10.311599	0	0	0
	55	pv	-8.11259	-11.167373	15.467398	0	0	0
	56	pv	-6.76056	-7.10651	-15.467398	0	0	0
	57	pv	-6.985898	-7.10651	-10.311599	0	0	0
	58	pv	-7.211236	-7.10651	-5.155799	0	0	0
	59	pv	-7.436574	-7.10651	0.0	0	0	0
	60	pv	-7.661912	-7.10651	5.155799	0	0	0
	61	pv	-7.88725	-7.10651	10.311599	0	0	0
	62	pv	-8.11259	-7.10651	15.467398	0	0	0
	63	pv	-6.76056	-3.045647	-15.467398	0	0	0
	64	pv	-6.985898	-3.045647	-10.311599	0	0	0
	65	pv	-7.211236	-3.045647	-5.155799	0	0	0
	66	pv	-7.436574	-3.045647	0.0	0	0	0
	67	pv	-7.661912	-3.045647	5.155799	0	0	0
	68	pv	-7.88725	-3.045647	10.311599	0	0	0
	69	pv	-8.11259	-3.045647	15.467398	0	0	0
	70	pv	-6.76056	1.015216	-15.467398	0	0	0
	71	pv	-6.985898	1.015216	-10.311599	0	0	0
	72	pv	-7.211236	1.015216	-5.155799	0	0	0
	73	pv	-7.436574	1.015216	0.0	0	0	0
	74	pv	-7.661912	1.015216	5.155799	0	0	0
	75	pv	-7.88725	1.015216	10.311599	0	0	0
	76	pv	-8.11259	1.015216	15.467398	0	0	0
	77	pv	-6.76056	5.076079	-15.467398	0	0	0
	78	pv	-6.985898	5.076079	-10.311599	0	0	0
	79	pv	-7.211236	5.076079	-5.155799	0	0	0
	80	pv	-7.436574	5.076079	0.0	0	0	0
	81	pv	-7.661912	5.076079	5.155799	0	0	0
	82	pv	-7.88725	5.076079	10.311599	0	0	0
	83	pv	-8.11259	5.076079	15.467398	0	0	0
	84	pv	-6.76056	9.136942	-15.467398	0	0	0
	85	pv	-6.985898	9.136942	-10.311599	0	0	0
	86	pv	-7.211236	9.136942	-5.155799	0	0	0
	87	pv	-7.436574	9.136942	0.0	0	0	0
	88	pv	-7.661912	9.136942	5.155799	0	0	0
	89	pv	-7.88725	9.136942	10.311599	0	0	0
	90	pv	-8.11259	9.136942	15.467398	0	0	0
	91	pv	-6.76056	13.197804	-15.467398	0	0	0
	92	pv	-6.985898	13.197804	-10.311599	0	0	0
	93	pv	-7.211236	13.197804	-5.155799	0	0	0
	94	pv	-7.436574	13.197804	0.0	0	0	0
	95	pv	-7.661912	13.197804	5.155799	0	0	0
	96	pv	-7.88725	13.197804	10.311599	0	0	0
	97	pv	-8.11259	13.197804	15.467398	0	0	0
	98	pv	-2.511089	-11.167373	-15.467398	0	0	0
	99	pv	-2.736427	-11.167373	-10.311599	0	0	0
	100	pv	-2.961765	-11.167373	-5.155799	0	0	0
	101	pv	-3.187103	-11.167373	0.0	0	0	0
	102	pv	-3.412441	-11.167373	5.155799	0	0	0
	103	pv	-3.63778	-11.167373	10.311599	0	0	0
	104	pv	-3.863118	-11.167373	15.467398	0	0	0
	105	pv	-2.511089	-7.10651	-15.467398	0	0	0
	106	pv	-2.736427	-7.10651	-10.311599	0	0	0
	107	pv	-2.961765	-7.10651	-5.155799	0	0	0
	108	pv	-3.187103	-7.10651	0.0	0	0	0
	109	pv	-3.412441	-7.10651	5.155799	0	0	0
	110	pv	-3.63778	-7.10651	10.311599	0	0	0
	111	pv	-3.863118	-7.10651	15.467398	0	0	0
	112	pv	-2.511089	-3.045647	-15.467398	0	0	0
	113	pv	-2.736427	-3.045647	-10.311599	0	0	0
	114	pv	-2.961765	-3.045647	-5.155799	0	0	0
	115	pv	-3.187103	-3.045647	0.0	0	0	0
	116	pv	-3.412441	-3.045647	5.155799	0	0	0
	117	pv	-3.63778	-3.045647	10.311599	0	0	0
	118	pv	-3.863118	-3.045647	15.467398	0	0	0
	119	pv	-2.511089	1.015216	-15.467398	0	0	0
	120	pv	-2.736427	1.015216	-10.311599	0	0	0
	121	pv	-2.961765	1.015216	-5.155799	0	0	0
	122	pv	-3.187103	1.015216	0.0	0	0	0
	123	pv	-3.412441	1.015216	5.155799	0	0	0
	124	pv	-3.63778	1.015216	10.311599	0	0	0
	125	pv	-3.863118	1.015216	15.467398	0	0	0
	126	pv	-2.511089	5.076079	-15.467398	0	0	0
	127	pv	-2.736427	5.076079	-10.311599	0	0	0
	128	pv	-2.961765	5.076079	-5.155799	0	0	0
	129	pv	-3.187103	5.076079	0.0	0	0	0
	130	pv	-3.412441	5.076079	5.155799	0	0	0
	131	pv	-3.63778	5.076079	10.311599	0	0	0
	132	pv	-3.863118	5.076079	15.467398	0	0	0
	133	pv	-2.511089	9.136942	-15.467398	0	0	0
	134	pv	-2.736427	9.136942	-10.311599	0	0	0
	135	pv	-2.961765	9.136942	-5.155799	0	0	0
	136	pv	-3.187103	9.136942	0.0	0	0	0
	137	pv	-3.412441	9.136942	5.155799	0	0	0
	138	pv	-3.63778	9.136942	10.311599	0	0	0
	139	pv	-3.863118	9.136942	15.467398	0	0	0
	140	pv	-2.511089	13.197804	-15.467398	0	0	0
	141	pv	-2.736427	13.197804	-10.311599	0	0	0
	142	pv	-2.961765	13.197804	-5.155799	0	0	0
	143	pv	-3.187103	13.197804	0.0	0	0	0
	144	pv	-3.412441	13.197804	5.155799	0	0	0
	145	pv	-3.63778	13.197804	10.311599	0	0	0
	146	pv	-3.863118	13.197804	15.467398	0	0	0
	147	pv	1.738382	-11.167373	-15.467398	0	0	0
	148	pv	1.513044	-11.167373	-10.311599	0	0	0
	149	pv	1.287706	-11.167373	-5.155799	0	0	0
	150	pv	1.062368	-11.167373	0.0	0	0	0
	151	pv	0.83703	-11.167373	5.155799	0	0	0
	152	pv	0.611691	-11.167373	10.311599	0	0	0
	153	pv	0.386353	-11.167373	15.467398	0	0	0
	154	pv	1.738382	-7.10651	-15.467398	0	0	0
	155	pv	1.513044	-7.10651	-10.311599	0	0	0
	156	pv	1.287706	-7.10651	-5.155799	0	0	0
	157	pv	1.062368	-7.10651	0.0	0	0	0
	158	pv	0.83703	-7.10651	5.155799	0	0	0
	159	pv	0.611691	-7.10651	10.311599	0	0	0
	160	pv	0.386353	-7.10651	15.467398	0	0	0
	161	pv	1.738382	-3.045647	-15.467398	0	0	0
	162	pv	1.513044	-3.045647	-10.311599	0	0	0
	163	pv	1.287706	-3.045647	-5.155799	0	0	0
	164	pv	1.062368	-3.045647	0.0	0	0	0
	165	pv	0.83703	-3.045647	5.155799	0	0	0
	166	pv	0.611691	-3.045647	10.311599	0	0	0
	167	pv	0.386353	-3.045647	15.467398	0	0	0
	168	pv	1.738382	1.015216	-15.467398	0	0	0
	169	pv	1.513044	1.015216	-10.311599	0	0	0
	170	pv	1.287706	1.015216	-5.155799	0	0	0
	171	pv	1.062368	1.015216	0.0	0	0	0
	172	pv	0.83703	1.015216	5.155799	0	0	0
	173	pv	0.611691	1.015216	10.311599	0	0	0
	174	pv	0.386353	1.015216	15.467398	0	0	0
	175	pv	1.738382	5.076079	-15.467398	0	0	0
	176	pv	1.513044	5.076079	-10.311599	0	0	0
	177	pv	1.287706	5.076079	-5.155799	0	0	0
	178	pv	1.062368	5.076079	0.0	0	0	0
	179	pv	0.83703	5.076079	5.155799	0	0	0
	180	pv	0.611691	5.076079	10.311599	0	0	0
	181	pv	0.386353	5.076079	15.467398	0	0	0
	182	pv	1.738382	9.136942	-15.467398	0	0	0
	183	pv	1.513044	9.136942	-10.311599	0	0	0
	184	pv	1.287706	9.136942	-5.155799	0	0	0
	185	pv	1.062368	9.136942	0.0	0	0	0
	186	pv	0.83703	9.136942	5.155799	0	0	0
	187	pv	0.611691	9.136942	10.311599	0	0	0
	188	pv	0.386353	9.136942	15.467398	0	0	0
	189	pv	1.738382	13.197804	-15.467398	0	0	0
	190	pv	1.513044	13.197804	-10.311599	0	0	0
	191	pv	1.287706	13.197804	-5.155799	0	0	0
	192	pv	1.062368	13.197804	0.0	0	0	0
	193	pv	0.83703	13.197804	5.155799	0	0	0
	194	pv	0.611691	13.197804	10.311599	0	0	0
	195	pv	0.386353	13.197804	15.467398	0	0	0
	196	pv	5.987854	-11.167373	-15.467398	0	0	0
	197	pv	5.762516	-11.167373	-10.311599	0	0	0
	198	pv	5.537177	-11.167373	-5.155799	0	0	0
	199	pv	5.311839	-11.167373	0.0	0	0	0
	200	pv	5.086501	-11.167373	5.155799	0	0	0
	201	pv	4.861163	-11.167373	10.311599	0	0	0
	202	pv	4.635825	-11.167373	15.467398	0	0	0
	203	pv	5.987854	-7.10651	-15.467398	0	0	0
	204	pv	5.762516	-7.10651	-10.311599	0	0	0
	205	pv	5.537177	-7.10651	-5.155799	0	0	0
	206	pv	5.311839	-7.10651	0.0	0	0	0
	207	pv	5.086501	-7.10651	5.155799	0	0	0
	208	pv	4.861163	-7.10651	10.311599	0	0	0
	209	pv	4.635825	-7.10651	15.467398	0	0	0
	210	pv	5.987854	-3.045647	-15.467398	0	0	0
	211	pv	5.762516	-3.045647	-10.311599	0	0	0
	212	pv	5.537177	-3.045647	-5.155799	0	0	0
	213	pv	5.311839	-3.045647	0.0	0	0	0
	214	pv	5.086501	-3.045647	5.155799	0	0	0
	215	pv	4.861163	-3.045647	10.311599	0	0	0
	216	pv	4.635825	-3.045647	15.467398	0	0	0
	217	pv	5.987854	1.015216	-15.467398	0	0	0
	218	pv	5.762516	1.015216	-10.311599	0	0	0
	219	pv	5.537177	1.015216	-5.155799	0	0	0
	220	pv	5.311839	1.015216	0.0	0	0	0
	221	pv	5.086501	1.015216	5.155799	0	0	0
	222	pv	4.861163	1.015216	10.311599	0	0	0
	223	pv	4.635825	1.015216	15.467398	0	0	0
	224	pv	5.987854	5.076079	-15.467398	0	0	0
	225	pv	5.762516	5.076079	-10.311599	0	0	0
	226	pv	5.537177	5.076079	-5.155799	0	0	0
	227	pv	5.311839	5.076079	0.0	0	0	0
	228	pv	5.086501	5.076079	5.155799	0	0	0
	229	pv	4.861163	5.076079	10.311599	0	0	0
	230	pv	4.635825	5.076079	15.467398	0	0	0
	231	pv	5.987854	9.136942	-15.467398	0	0	0
	232	pv	5.762516	9.136942	-10.311599	0	0	0
	233	pv	5.537177	9.136942	-5.155799	0	0	0
	234	pv	5.311839	9.136942	0.0	0	0	0
	235	pv	5.086501	9.136942	5.155799	0	0	0
	236	pv	4.861163	9.136942	10.311599	0	0	0
	237	pv	4.635825	9.136942	15.467398	0	0	0
	238	pv	5.987854	13.197804	-15.467398	0	0	0
	239	pv	5.762516	13.197804	-10.311599	0	0	0
	240	pv	5.537177	13.197804	-5.155799	0	0	0
	241	pv	5.311839	13.197804	0.0	0	0	0
	242	pv	5.086501	13.197804	5.155799	0	0	0
	243	pv	4.861163	13.197804	10.311599	0	0	0
	244	pv	4.635825	13.197804	15.467398	0	0	0
	245	pv	10.237325	-11.167373	-15.467398	0	0	0
	246	pv	10.011986	-11.167373	-10.311599	0	0	0
	247	pv	9.786648	-11.167373	-5.155799	0	0	0
	248	pv	9.56131	-11.167373	0.0	0	0	0
	249	pv	9.335972	-11.167373	5.155799	0	0	0
	250	pv	9.110634	-11.167373	10.311599	0	0	0
	251	pv	8.885296	-11.167373	15.467398	0	0	0
	252	pv	10.237325	-7.10651	-15.467398	0	0	0
	253	pv	10.011986	-7.10651	-10.311599	0	0	0
	254	pv	9.786648	-7.10651	-5.155799	0	0	0
	255	pv	9.56131	-7.10651	0.0	0	0	0
	256	pv	9.335972	-7.10651	5.155799	0	0	0
	257	pv	9.110634	-7.10651	10.311599	0	0	0
	258	pv	8.885296	-7.10651	15.467398	0	0	0
	259	pv	10.237325	-3.045647	-15.467398	0	0	0
	260	pv	10.011986	-3.045647	-10.311599	0	0	0
	261	pv	9.786648	-3.045647	-5.155799	0	0	0
	262	pv	9.56131	-3.045647	0.0	0	0	0
	263	pv	9.335972	-3.045647	5.155799	0	0	0
	264	pv	9.110634	-3.045647	10.311599	0	0	0
	265	pv	8.885296	-3.045647	15.467398	0	0	0
	266	pv	10.237325	1.015216	-15.467398	0	0	0
	267	pv	10.011986	1.015216	-10.311599	0	0	0
	268	pv	9.786648	1.015216	-5.155799	0	0	0
	269	pv	9.56131	1.015216	0.0	0	0	0
	270	pv	9.335972	1.015216	5.155799	0	0	0
	271	pv	9.110634	1.015216	10.311599	0	0	0
	272	pv	8.885296	1.015216	15.467398	0	0	0
	273	pv	10.237325	5.076079	-15.467398	0	0	0
	274	pv	10.011986	5.076079	-10.311599	0	0	0
	275	pv	9.786648	5.076079	-5.155799	0	0	0
	276	pv	9.56131	5.076079	0.0	0	0	0
	277	pv	9.335972	5.076079	5.155799	0	0	0
	278	pv	9.110634	5.076079	10.311599	0	0	0
	279	pv	8.885296	5.076079	15.467398	0	0	0
	280	pv	10.237325	9.136942	-15.467398	0	0	0
	281	pv	10.011986	9.136942	-10.311599	0	0	0
	282	pv	9.786648	9.136942	-5.155799	0	0	0
	283	pv	9.56131	9.136942	0.0	0	0	0
	284	pv	9.335972	9.136942	5.155799	0	0	0
	285	pv	9.110634	9.136942	10.311599	0	0	0
	286	pv	8.885296	9.136942	15.467398	0	0	0
	287	pv	10.237325	13.197804	-15.467398	0	0	0
	288	pv	10.011986	13.197804	-10.311599	0	0	0
	289	pv	9.786648	13.197804	-5.155799	0	0	0
	290	pv	9.56131	13.197804	0.0	0	0	0
	291	pv	9.335972	13.197804	5.155799	0	0	0
	292	pv	9.110634	13.197804	10.311599	0	0	0
	293	pv	8.885296	13.197804	15.467398	0	0	0
	294	pv	14.486795	-11.167373	-15.467398	0	0	0
	295	pv	14.261456	-11.167373	-10.311599	0	0	0
	296	pv	14.036119	-11.167373	-5.155799	0	0	0
	297	pv	13.810781	-11.167373	0.0	0	0	0
	298	pv	13.585443	-11.167373	5.155799	0	0	0
	299	pv	13.360105	-11.167373	10.311599	0	0	0
	300	pv	13.134766	-11.167373	15.467398	0	0	0
	301	pv	14.486795	-7.10651	-15.467398	0	0	0
	302	pv	14.261456	-7.10651	-10.311599	0	0	0
	303	pv	14.036119	-7.10651	-5.155799	0	0	0
	304	pv	13.810781	-7.10651	0.0	0	0	0
	305	pv	13.585443	-7.10651	5.155799	0	0	0
	306	pv	13.360105	-7.10651	10.311599	0	0	0
	307	pv	13.134766	-7.10651	15.467398	0	0	0
	308	pv	14.486795	-3.045647	-15.467398	0	0	0
	309	pv	14.261456	-3.045647	-10.311599	0	0	0
	310	pv	14.036119	-3.045647	-5.155799	0	0	0
	311	pv	13.810781	-3.045647	0.0	0	0	0
	312	pv	13.585443	-3.045647	5.155799	0	0	0
	313	pv	13.360105	-3.045647	10.311599	0	0	0
	314	pv	13.134766	-3.045647	15.467398	0	0	0
	315	pv	14.486795	1.015216	-15.467398	0	0	0
	316	pv	14.261456	1.015216	-10.311599	0	0	0
	317	pv	14.036119	1.015216	-5.155799	0	0	0
	318	pv	13.810781	1.015216	0.0	0	0	0
	319	pv	13.585443	1.015216	5.155799	0	0	0
	320	pv	13.360105	1.015216	10.311599	0	0	0
	321	pv	13.134766	1.015216	15.467398	0	0	0
	322	pv	14.486795	5.076079	-15.467398	0	0	0
	323	pv	14.261456	5.076079	-10.311599	0	0	0
	324	pv	14.036119	5.076079	-5.155799	0	0	0
	325	pv	13.810781	5.076079	0.0	0	0	0
	326	pv	13.585443	5.076079	5.155799	0	0	0
	327	pv	13.360105	5.076079	10.311599	0	0	0
	328	pv	13.134766	5.076079	15.467398	0	0	0
	329	pv	14.486795	9.136942	-15.467398	0	0	0
	330	pv	14.261456	9.136942	-10.311599	0	0	0
	331	pv	14.036119	9.136942	-5.155799	0	0	0
	332	pv	13.810781	9.136942	0.0	0	0	0
	333	pv	13.585443	9.136942	5.155799	0	0	0
	334	pv	13.360105	9.136942	10.311599	0	0	0
	335	pv	13.134766	9.136942	15.467398	0	0	0
	336	pv	14.486795	13.197804	-15.467398	0	0	0
	337	pv	14.261456	13.197804	-10.311599	0	0	0
	338	pv	14.036119	13.197804	-5.155799	0	0	0
	339	pv	13.810781	13.197804	0.0	0	0	0
	340	pv	13.585443	13.197804	5.155799	0	0	0
	341	pv	13.360105	13.197804	10.311599	0	0	0
	342	pv	13.134766	13.197804	15.467398	0	0	0
	343	pv	-8.885295	-9.136942	-15.467398	0	0	0
	344	pv	-9.110634	-9.136942	-10.311599	0	0	0
	345	pv	-9.335972	-9.136942	-5.155799	0	0	0
	346	pv	-9.56131	-9.136942	0.0	0	0	0
	347	pv	-9.786648	-9.136942	5.155799	0	0	0
	348	pv	-10.011986	-9.136942	10.311599	0	0	0
	349	pv	-10.237325	-9.136942	15.467398	0	0	0
	350	pv	-8.885295	-5.076079	-15.467398	0	0	0
	351	pv	-9.110634	-5.076079	-10.311599	0	0	0
	352	pv	-9.335972	-5.076079	-5.155799	0	0	0
	353	pv	-9.56131	-5.076079	0.0	0	0	0
	354	pv	-9.786648	-5.076079	5.155799	0	0	0
	355	pv	-10.011986	-5.076079	10.311599	0	0	0
	356	pv	-10.237325	-5.076079	15.467398	0	0	0
	357	pv	-8.885295	-1.015216	-15.467398	0	0	0
	358	pv	-9.110634	-1.015216	-10.311599	0	0	0
	359	pv	-9.335972	-1.015216	-5.155799	0	0	0
	360	pv	-9.56131	-1.015216	0.0	0	0	0
	361	pv	-9.786648	-1.015216	5.155799	0	0	0
	362	pv	-10.011986	-1.015216	10.311599	0	0	0
	363	pv	-10.237325	-1.015216	15.467398	0	0	0
	364	pv	-8.885295	3.045647	-15.467398	0	0	0
	365	pv	-9.110634	3.045647	-10.311599	0	0	0
	366	pv	-9.335972	3.045647	-5.155799	0	0	0
	367	pv	-9.56131	3.045647	0.0	0	0	0
	368	pv	-9.786648	3.045647	5.155799	0	0	0
	369	pv	-10.011986	3.045647	10.311599	0	0	0
	370	pv	-10.237325	3.045647	15.467398	0	0	0
	371	pv	-8.885295	7.10651	-15.467398	0	0	0
	372	pv	-9.110634	7.10651	-10.311599	0	0	0
	373	pv	-9.335972	7.10651	-5.155799	0	0	0
	374	pv	-9.56131	7.10651	0.0	0	0	0
	375	pv	-9.786648	7.10651	5.155799	0	0	0
	376	pv	-10.011986	7.10651	10.311599	0	0	0
	377	pv	-10.237325	7.10651	15.467398	0	0	0
	378	pv	-8.885295	11.167374	-15.467398	0	0	0
	379	pv	-9.110634	11.167374	-10.311599	0	0	0
	380	pv	-9.335972	11.167374	-5.155799	0	0	0
	381	pv	-9.56131	11.167374	0.0	0	0	0
	382	pv	-9.786648	11.167374	5.155799	0	0	0
	383	pv	-10.011986	11.167374	10.311599	0	0	0
	384	pv	-10.237325	11.167374	15.467398	0	0	0
	385	pv	-8.885295	15.228235	-15.467398	0	0	0
	386	pv	-9.110634	15.228235	-10.311599	0	0	0
	387	pv	-9.335972	15.228235	-5.155799	0	0	0
	388	pv	-9.56131	15.228235	0.0	0	0	0
	389	pv	-9.786648	15.228235	5.155799	0	0	0
	390	pv	-10.011986	15.228235	10.311599	0	0	0
	391	pv	-10.237325	15.228235	15.467398	0	0	0
	392	pv	-4.635825	-9.136942	-15.467398	0	0	0
	393	pv	-4.861163	-9.136942	-10.311599	0	0	0
	394	pv	-5.086501	-9.136942	-5.155799	0	0	0
	395	pv	-5.311839	-9.136942	0.0	0	0	0
	396	pv	-5.537177	-9.136942	5.155799	0	0	0
	397	pv	-5.762515	-9.136942	10.311599	0	0	0
	398	pv	-5.987854	-9.136942	15.467398	0	0	0
	399	pv	-4.635825	-5.076079	-15.467398	0	0	0
	400	pv	-4.861163	-5.076079	-10.311599	0	0	0
	401	pv	-5.086501	-5.076079	-5.155799	0	0	0
	402	pv	-5.311839	-5.076079	0.0	0	0	0
	403	pv	-5.537177	-5.076079	5.155799	0	0	0
	404	pv	-5.762515	-5.076079	10.311599	0	0	0
	405	pv	-5.987854	-5.076079	15.467398	0	0	0
	406	pv	-4.635825	-1.015216	-15.467398	0	0	0
	407	pv	-4.861163	-1.015216	-10.311599	0	0	0
	408	pv	-5.086501	-1.015216	-5.155799	0	0	0
	409	pv	-5.311839	-1.015216	0.0	0	0	0
	410	pv	-5.537177	-1.015216	5.155799	0	0	0
	411	pv	-5.762515	-1.015216	10.311599	0	0	0
	412	pv	-5.987854	-1.015216	15.467398	0	0	0
	413	pv	-4.635825	3.045647	-15.467398	0	0	0
	414	pv	-4.861163	3.045647	-10.311599	0	0	0
	415	pv	-5.086501	3.045647	-5.155799	0	0	0
	416	pv	-5.311839	3.045647	0.0	0	0	0
	417	pv	-5.537177	3.045647	5.155799	0	0	0
	418	pv	-5.762515	3.045647	10.311599	0	0	0
	419	pv	-5.987854	3.045647	15.467398	0	0	0
	420	pv	-4.635825	7.10651	-15.467398	0	0	0
	421	pv	-4.861163	7.10651	-10.311599	0	0	0
	422	pv	-5.086501	7.10651	-5.155799	0	0	0
	423	pv	-5.311839	7.10651	0.0	0	0	0
	424	pv	-5.537177	7.10651	5.155799	0	0	0
	425	pv	-5.762515	7.10651	10.311599	0	0	0
	426	pv	-5.987854	7.10651	15.467398	0	0	0
	427	pv	-4.635825	11.167374	-15.467398	0	0	0
	428	pv	-4.861163	11.167374	-10.311599	0	0	0
	429	pv	-5.086501	11.167374	-5.155799	0	0	0
	430	pv	-5.311839	11.167374	0.0	0	0	0
	431	pv	-5.537177	11.167374	5.155799	0	0	0
	432	pv	-5.762515	11.167374	10.311599	0	0	0
	433	pv	-5.987854	11.167374	15.467398	0	0	0
	434	pv	-4.635825	15.228235	-15.467398	0	0	0
	435	pv	-4.861163	15.228235	-10.311599	0	0	0
	436	pv	-5.086501	15.228235	-5.155799	0	0	0
	437	pv	-5.311839	15.228235	0.0	0	0	0
	438	pv	-5.537177	15.228235	5.155799	0	0	0
	439	pv	-5.762515	15.228235	10.311599	0	0	0
	440	pv	-5.987854	15.228235	15.467398	0	0	0
	441	pv	-0.386353	-9.136942	-15.467398	0	0	0
	442	pv	-0.611691	-9.136942	-10.311599	0	0	0
	443	pv	-0.83703	-9.136942	-5.155799	0	0	0
	444	pv	-1.062368	-9.136942	0.0	0	0	0
	445	pv	-1.287706	-9.136942	5.155799	0	0	0
	446	pv	-1.513044	-9.136942	10.311599	0	0	0
	447	pv	-1.738382	-9.136942	15.467398	0	0	0
	448	pv	-0.386353	-5.076079	-15.467398	0	0	0
	449	pv	-0.611691	-5.076079	-10.311599	0	0	0
	450	pv	-0.83703	-5.076079	-5.155799	0	0	0
	451	pv	-1.062368	-5.076079	0.0	0	0	0
	452	pv	-1.287706	-5.076079	5.155799	0	0	0
	453	pv	-1.513044	-5.076079	10.311599	0	0	0
	454	pv	-1.738382	-5.076079	15.467398	0	0	0
	455	pv	-0.386353	-1.015216	-15.467398	0	0	0
	456	pv	-0.611691	-1.015216	-10.311599	0	0	0
	457	pv	-0.83703	-1.015216	-5.155799	0	0	0
	458	pv	-1.062368	-1.015216	0.0	0	0	0
	459	pv	-1.287706	-1.015216	5.155799	0	0	0
	460	pv	-1.513044	-1.015216	10.311599	0	0	0
	461	pv	-1.738382	-1.015216	15.467398	0	0	0
	462	pv	-0.386353	3.045647	-15.467398	0	0	0
	463	pv	-0.611691	3.045647	-10.311599	0	0	0
	464	pv	-0.83703	3.045647	-5.155799	0	0	0
	465	pv	-1.062368	3.045647	0.0	0	0	0
	466	pv	-1.287706	3.045647	5.155799	0	0	0
	467	pv	-1.513044	3.045647	10.311599	0	0	0
	468	pv	-1.738382	3.045647	15.467398	0	0	0
	469	pv	-0.386353	7.10651	-15.467398	0	0	0
	470	pv	-0.611691	7.10651	-10.311599	0	0	0
	471	pv	-0.83703	7.10651	-5.155799	0	0	0
	472	pv	-1.062368	7.10651	0.0	0	0	0
	473	pv	-1.287706	7.10651	5.155799	0	0	0
	474	pv	-1.513044	7.10651	10.311599	0	0	0
	475	pv	-1.738382	7.10651	15.467398	0	0	0
	476	pv	-0.386353	11.167374	-15.467398	0	0	0
	477	pv	-0.611691	11.167374	-10.311599	0	0	0
	478	pv	-0.83703	11.167374	-5.155799	0	0	0
	479	pv	-1.062368	11.167374	0.0	0	0	0
	480	pv	-1.287706	11.167374	5.155799	0	0	0
	481	pv	-1.513044	11.167374	10.311599	0	0	0
	482	pv	-1.738382	11.167374	15.467398	0	0	0
	483	pv	-0.386353	15.228235	-15.467398	0	0	0
	484	pv	-0.611691	15.228235	-10.311599	0	0	0
	485	pv	-0.83703	15.228235	-5.155799	0	0	0
	486	pv	-1.062368	15.228235	0.0	0	0	0
	487	pv	-1.287706	15.228235	5.155799	0	0	0
	488	pv	-1.513044	15.228235	10.311599	0	0	0
	489	pv	-1.738382	15.228235	15.467398	0	0	0
	490	pv	3.863118	-9.136942	-15.467398	0	0	0
	491	pv	3.63778	-9.136942	-10.311599	0	0	0
	492	pv	3.412441	-9.136942	-5.155799	0	0	0
	493	pv	3.187103	-9.136942	0.0	0	0	0
	494	pv	2.961765	-9.136942	5.155799	0	0	0
	495	pv	2.736427	-9.136942	10.311599	0	0	0
	496	pv	2.511089	-9.136942	15.467398	0	0	0
	497	pv	3.863118	-5.076079	-15.467398	0	0	0
	498	pv	3.63778	-5.076079	-10.311599	0	0	0
	499	pv	3.412441	-5.076079	-5.155799	0	0	0
	500	pv	3.187103	-5.076079	0.0	0	0	0
	501	pv	2.961765	-5.076079	5.155799	0	0	0
	502	pv	2.736427	-5.076079	10.311599	0	0	0
	503	pv	2.511089	-5.076079	15.467398	0	0	0
	504	pv	3.863118	-1.015216	-15.467398	0	0	0
	505	pv	3.63778	-1.015216	-10.311599	0	0	0
	506	pv	3.412441	-1.015216	-5.155799	0	0	0
	507	pv	3.187103	-1.015216	0.0	0	0	0
	508	pv	2.961765	-1.015216	5.155799	0	0	0
	509	pv	2.736427	-1.015216	10.311599	0	0	0
	510	pv	2.511089	-1.015216	15.467398	0	0	0
	511	pv	3.863118	3.045647	-15.467398	0	0	0
	512	pv	3.63778	3.045647	-10.311599	0	0	0
	513	pv	3.412441	3.045647	-5.155799	0	0	0
	514	pv	3.187103	3.045647	0.0	0	0	0
	515	pv	2.961765	3.045647	5.155799	0	0	0
	516	pv	2.736427	3.045647	10.311599	0	0	0
	517	pv	2.511089	3.045647	15.467398	0	0	0
	518	pv	3.863118	7.10651	-15.467398	0	0	0
	519	pv	3.63778	7.10651	-10.311599	0	0	0
	520	pv	3.412441	7.10651	-5.155799	0	0	0
	521	pv	3.187103	7.10651	0.0	0	0	0
	522	pv	2.961765	7.10651	5.155799	0	0	0
	523	pv	2.736427	7.10651	10.311599	0	0	0
	524	pv	2.511089	7.10651	15.467398	0	0	0
	525	pv	3.863118	11.167374	-15.467398	0	0	0
	526	pv	3.63778	11.167374	-10.311599	0	0	0
	527	pv	3.412441	11.167374	-5.155799	0	0	0
	528	pv	3.187103	11.167374	0.0	0	0	0
	529	pv	2.961765	11.167374	5.155799	0	0	0
	530	pv	2.736427	11.167374	10.311599	0	0	0
	531	pv	2.511089	11.167374	15.467398	0	0	0
	532	pv	3.863118	15.228235	-15.467398	0	0	0
	533	pv	3.63778	15.228235	-10.311599	0	0	0
	534	pv	3.412441	15.228235	-5.155799	0	0	0
	535	pv	3.187103	15.228235	0.0	0	0	0
	536	pv	2.961765	15.228235	5.155799	0	0	0
	537	pv	2.736427	15.228235	10.311599	0	0	0
	538	pv	2.511089	15.228235	15.467398	0	0	0
	539	pv	8.112589	-9.136942	-15.467398	0	0	0
	540	pv	7.887251	-9.136942	-10.311599	0	0	0
	541	pv	7.661912	-9.136942	-5.155799	0	0	0
	542	pv	7.436574	-9.136942	0.0	0	0	0
	543	pv	7.211236	-9.136942	5.155799	0	0	0
	544	pv	6.985898	-9.136942	10.311599	0	0	0
	545	pv	6.76056	-9.136942	15.467398	0	0	0
	546	pv	8.112589	-5.076079	-15.467398	0	0	0
	547	pv	7.887251	-5.076079	-10.311599	0	0	0
	548	pv	7.661912	-5.076079	-5.155799	0	0	0
	549	pv	7.436574	-5.076079	0.0	0	0	0
	550	pv	7.211236	-5.076079	5.155799	0	0	0
	551	pv	6.985898	-5.076079	10.311599	0	0	0
	552	pv	6.76056	-5.076079	15.467398	0	0	0
	553	pv	8.112589	-1.015216	-15.467398	0	0	0
	554	pv	7.887251	-1.015216	-10.311599	0	0	0
	555	pv	7.661912	-1.015216	-5.155799	0	0	0
	556	pv	7.436574	-1.015216	0.0	0	0	0
	557	pv	7.211236	-1.015216	5.155799	0	0	0
	558	pv	6.985898	-1.015216	10.311599	0	0	0
	559	pv	6.76056	-1.015216	15.467398	0	0	0
	560	pv	8.112589	3.045647	-15.467398	0	0	0
	561	pv	7.887251	3.045647	-10.311599	0	0	0
	562	pv	7.661912	3.045647	-5.155799	0	0	0
	563	pv	7.436574	3.045647	0.0	0	0	0
	564	pv	7.211236	3.045647	5.155799	0	0	0
	565	pv	6.985898	3.045647	10.311599	0	0	0
	566	pv	6.76056	3.045647	15.467398	0	0	0
	567	pv	8.112589	7.10651	-15.467398	0	0	0
	568	pv	7.887251	7.10651	-10.311599	0	0	0
	569	pv	7.661912	7.10651	-5.155799	0	0	0
	570	pv	7.436574	7.10651	0.0	0	0	0
	571	pv	7.211236	7.10651	5.155799	0	0	0
	572	pv	6.985898	7.10651	10.311599	0	0	0
	573	pv	6.76056	7.10651	15.467398	0	0	0
	574	pv	8.112589	11.167374	-15.467398	0	0	0
	575	pv	7.887251	11.167374	-10.311599	0	0	0
	576	pv	7.661912	11.167374	-5.155799	0	0	0
	577	pv	7.436574	11.167374	0.0	0	0	0
	578	pv	7.211236	11.167374	5.155799	0	0	0
	579	pv	6.985898	11.167374	10.311599	0	0	0
	580	pv	6.76056	11.167374	15.467398	0	0	0
	581	pv	8.112589	15.228235	-15.467398	0	0	0
	582	pv	7.887251	15.228235	-10.311599	0	0	0
	583	pv	7.661912	15.228235	-5.155799	0	0	0
	584	pv	7.436574	15.228235	0.0	0	0	0
	585	pv	7.211236	15.228235	5.155799	0	0	0
	586	pv	6.985898	15.228235	10.311599	0	0	0
	587	pv	6.76056	15.228235	15.467398	0	0	0
	588	pv	12.362061	-9.136942	-15.467398	0	0	0
	589	pv	12.136722	-9.136942	-10.311599	0	0	0
	590	pv	11.911384	-9.136942	-5.155799	0	0	0
	591	pv	11.686046	-9.136942	0.0	0	0	0
	592	pv	11.460708	-9.136942	5.155799	0	0	0
	593	pv	11.23537	-9.136942	10.311599	0	0	0
	594	pv	11.010031	-9.136942	15.467398	0	0	0
	595	pv	12.362061	-5.076079	-15.467398	0	0	0
	596	pv	12.136722	-5.076079	-10.311599	0	0	0
	597	pv	11.911384	-5.076079	-5.155799	0	0	0
	598	pv	11.686046	-5.076079	0.0	0	0	0
	599	pv	11.460708	-5.076079	5.155799	0	0	0
	600	pv	11.23537	-5.076079	10.311599	0	0	0
	601	pv	11.010031	-5.076079	15.467398	0	0	0
	602	pv	12.362061	-1.015216	-15.467398	0	0	0
	603	pv	12.136722	-1.015216	-10.311599	0	0	0
	604	pv	11.911384	-1.015216	-5.155799	0	0	0
	605	pv	11.686046	-1.015216	0.0	0	0	0
	606	pv	11.460708	-1.015216	5.155799	0	0	0
	607	pv	11.23537	-1.015216	10.311599	0	0	0
	608	pv	11.010031	-1.015216	15.467398	0	0	0
	609	pv	12.362061	3.045647	-15.467398	0	0	0
	610	pv	12.136722	3.045647	-10.311599	0	0	0
	611	pv	11.911384	3.045647	-5.155799	0	0	0
	612	pv	11.686046	3.045647	0.0	0	0	0
	613	pv	11.460708	3.045647	5.155799	0	0	0
	614	pv	11.23537	3.045647	10.311599	0	0	0
	615	pv	11.010031	3.045647	15.467398	0	0	0
	616	pv	12.362061	7.10651	-15.467398	0	0	0
	617	pv	12.136722	7.10651	-10.311599	0	0	0
	618	pv	11.911384	7.10651	-5.155799	0	0	0
	619	pv	11.686046	7.10651	0.0	0	0	0
	620	pv	11.460708	7.10651	5.155799	0	0	0
	621	pv	11.23537	7.10651	10.311599	0	0	0
	622	pv	11.010031	7.10651	15.467398	0	0	0
	623	pv	12.362061	11.167374	-15.467398	0	0	0
	624	pv	12.136722	11.167374	-10.311599	0	0	0
	625	pv	11.911384	11.167374	-5.155799	0	0	0
	626	pv	11.686046	11.167374	0.0	0	0	0
	627	pv	11.460708	11.167374	5.155799	0	0	0
	628	pv	11.23537	11.167374	10.311599	0	0	0
	629	pv	11.010031	11.167374	15.467398	0	0	0
	630	pv	12.362061	15.228235	-15.467398	0	0	0
	631	pv	12.136722	15.228235	-10.311599	0	0	0
	632	pv	11.911384	15.228235	-5.155799	0	0	0
	633	pv	11.686046	15.228235	0.0	0	0	0
	634	pv	11.460708	15.228235	5.155799	0	0	0
	635	pv	11.23537	15.228235	10.311599	0	0	0
	636	pv	11.010031	15.228235	15.467398	0	0	0
	637	pv	16.61153	-9.136942	-15.467398	0	0	0
	638	pv	16.386192	-9.136942	-10.311599	0	0	0
	639	pv	16.160854	-9.136942	-5.155799	0	0	0
	640	pv	15.935516	-9.136942	0.0	0	0	0
	641	pv	15.710178	-9.136942	5.155799	0	0	0
	642	pv	15.48484	-9.136942	10.311599	0	0	0
	643	pv	15.259501	-9.136942	15.467398	0	0	0
	644	pv	16.61153	-5.076079	-15.467398	0	0	0
	645	pv	16.386192	-5.076079	-10.311599	0	0	0
	646	pv	16.160854	-5.076079	-5.155799	0	0	0
	647	pv	15.935516	-5.076079	0.0	0	0	0
	648	pv	15.710178	-5.076079	5.155799	0	0	0
	649	pv	15.48484	-5.076079	10.311599	0	0	0
	650	pv	15.259501	-5.076079	15.467398	0	0	0
	651	pv	16.61153	-1.015216	-15.467398	0	0	0
	652	pv	16.386192	-1.015216	-10.311599	0	0	0
	653	pv	16.160854	-1.015216	-5.155799	0	0	0
	654	pv	15.935516	-1.015216	0.0	0	0	0
	655	pv	15.710178	-1.015216	5.155799	0	0	0
	656	pv	15.48484	-1.015216	10.311599	0	0	0
	657	pv	15.259501	-1.015216	15.467398	0	0	0
	658	pv	16.61153	3.045647	-15.467398	0	0	0
	659	pv	16.386192	3.045647	-10.311599	0	0	0
	660	pv	16.160854	3.045647	-5.155799	0	0	0
	661	pv	15.935516	3.045647	0.0	0	0	0
	662	pv	15.710178	3.045647	5.155799	0	0	0
	663	pv	15.48484	3.045647	10.311599	0	0	0
	664	pv	15.259501	3.045647	15.467398	0	0	0
	665	pv	16.61153	7.10651	-15.467398	0	0	0
	666	pv	16.386192	7.10651	-10.311599	0	0	0
	667	pv	16.160854	7.10651	-5.155799	0	0	0
	668	pv	15.935516	7.10651	0.0	0	0	0
	669	pv	15.710178	7.10651	5.155799	0	0	0
	670	pv	15.48484	7.10651	10.311599	0	0	0
	671	pv	15.259501	7.10651	15.467398	0	0	0
	672	pv	16.61153	11.167374	-15.467398	0	0	0
	673	pv	16.386192	11.167374	-10.311599	0	0	0
	674	pv	16.160854	11.167374	-5.155799	0	0	0
	675	pv	15.935516	11.167374	0.0	0	0	0
	676	pv	15.710178	11.167374	5.155799	0	0	0
	677	pv	15.48484	11.167374	10.311599	0	0	0
	678	pv	15.259501	11.167374	15.467398	0	0	0
	679	pv	16.61153	15.228235	-15.467398	0	0	0
	680	pv	16.386192	15.228235	-10.311599	0	0	0
	681	pv	16.160854	15.228235	-5.155799	0	0	0