<OpenMD version=1>
  <MetaData>
  
molecule{
  name = "Cu";
  
  atom[0]{
     type="Cu_FQ";
     position( 0.0, 0.0, 0.0 );
  }
}
molecule{
  name = "O";
  
  atom[0]{
     type="O_FQ";
     position( 0.0, 0.0, 0.0 );
  }
}

component{
  type = "Cu";
  nMol = 660;
}
component{
  type = "O";
  nMol = 1320;
}
flucQ {
  propagator = "Damped";
  targetTemp = 1;
  dragCoefficient = 1;
  doInitialOptimization = false;
}

forceField = "DR-EAM";
forceFieldFileName = "DR-EAM.v2.frc";

outputFluctuatingCharges = true;
outputElectricField = true;
outputDensity = true;

ensemble = NVE;
dt = 0.1;
runTime = 1;
sampleTime = 0.1;
statusTime = 0.1;


cutoffMethod = "shifted_force";
cutoffRadius = 12;
electrostaticScreeningMethod = "DAMPED";
dampingAlpha = 0.105;

statFileFormat = "TIME|TOTAL_ENERGY|POTENTIAL_ENERGY|KINETIC_ENERGY|TEMPERATURE|PRESSURE|VOLUME|CONSERVED_QUANTITY|SYSTEM_DIPOLE";

  </MetaData>
  <Snapshot>
    <FrameData>
        Time: 0
        Hmat: {{ 34.20, 0, 0 }, { 0, 36.50, 0 }, { 0, 0, 30.03 }}
  Thermostat: 0, 0
    Barostat: {{ 0, 0, 0 }, { 0, 0, 0 }, { 0, 0, 0 }}
    </FrameData>
    <StuntDoubles>
	0	pv	2.850000	-1.825000	-0.682500	0 0 0
	1	pv	2.850000	-1.825000	-3.412500	0 0 0
	2	pv	2.850000	-1.825000	-6.142500	0 0 0
	3	pv	2.850000	-1.825000	-8.872500	0 0 0
	4	pv	2.850000	-1.825000	-11.602500	0 0 0
	5	pv	2.850000	-1.825000	-14.332500	0 0 0
	6	pv	2.850000	-1.825000	-17.062500	0 0 0
	7	pv	2.850000	-1.825000	-19.792500	0 0 0
	8	pv	2.850000	-1.825000	-22.522500	0 0 0
	9	pv	2.850000	-1.825000	-25.252500	0 0 0
	10	pv	2.850000	-1.825000	-27.982500	0 0 0
	11	pv	2.850000	-5.475000	-2.047500	0 0 0
	12	pv	2.850000	-5.475000	-4.777500	0 0 0
	13	pv	2.850000	-5.475000	-7.507500	0 0 0
	14	pv	2.850000	-5.475000	-10.237500	0 0 0
	15	pv	2.850000	-5.475000	-12.967500	0 0 0
	16	pv	2.850000	-5.475000	-15.697500	0 0 0
	17	pv	2.850000	-5.475000	-18.427500	0 0 0
	18	pv	2.850000	-5.475000	-21.157500	0 0 0
	19	pv	2.850000	-5.475000	-23.887500	0 0 0
	20	pv	2.850000	-5.475000	-26.617500	0 0 0
	21	pv	2.850000	-5.475000	-29.347500	0 0 0
	22	pv	2.850000	-9.125000	-0.682500	0 0 0
	23	pv	2.850000	-9.125000	-3.412500	0 0 0
	24	pv	2.850000	-9.125000	-6.142500	0 0 0
	25	pv	2.850000	-9.125000	-8.872500	0 0 0
	26	pv	2.850000	-9.125000	-11.602500	0 0 0
	27	pv	2.850000	-9.125000	-14.332500	0 0 0
	28	pv	2.850000	-9.125000	-17.062500	0 0 0
	29	pv	2.850000	-9.125000	-19.792500	0 0 0
	30	pv	2.850000	-9.125000	-22.522500	0 0 0
	31	pv	2.850000	-9.125000	-25.252500	0 0 0
	32	pv	2.850000	-9.125000	-27.982500	0 0 0
	33	pv	2.850000	-12.775000	-2.047500	0 0 0
	34	pv	2.850000	-12.775000	-4.777500	0 0 0
	35	pv	2.850000	-12.775000	-7.507500	0 0 0
	36	pv	2.850000	-12.775000	-10.237500	0 0 0
	37	pv	2.850000	-12.775000	-12.967500	0 0 0
	38	pv	2.850000	-12.775000	-15.697500	0 0 0
	39	pv	2.850000	-12.775000	-18.427500	0 0 0
	40	pv	2.850000	-12.775000	-21.157500	0 0 0
	41	pv	2.850000	-12.775000	-23.887500	0 0 0
	42	pv	2.850000	-12.775000	-26.617500	0 0 0
	43	pv	2.850000	-12.775000	-29.347500	0 0 0
	44	pv	2.850000	-16.425000	-0.682500	0 0 0
	45	pv	2.850000	-16.425000	-3.412500	0 0 0
	46	pv	2.850000	-16.425000	-6.142500	0 0 0
	47	pv	2.850000	-16.425000	-8.872500	0 0 0
	48	pv	2.850000	-16.425000	-11.602500	0 0 0
	49	pv	2.850000	-16.425000	-14.332500	0 0 0
	50	pv	2.850000	-16.425000	-17.062500	0 0 0
	51	pv	2.850000	-16.425000	-19.792500	0 0 0
	52	pv	2.850000	-16.425000	-22.522500	0 0 0
	53	pv	2.850000	-16.425000	-25.252500	0 0 0
	54	pv	2.850000	-16.425000	-27.982500	0 0 0
	55	pv	2.850000	-20.075000	-2.047500	0 0 0
	56	pv	2.850000	-20.075000	-4.777500	0 0 0
	57	pv	2.850000	-20.075000	-7.507500	0 0 0
	58	pv	2.850000	-20.075000	-10.237500	0 0 0
	59	pv	2.850000	-20.075000	-12.967500	0 0 0
	60	pv	2.850000	-20.075000	-15.697500	0 0 0
	61	pv	2.850000	-20.075000	-18.427500	0 0 0
	62	pv	2.850000	-20.075000	-21.157500	0 0 0
	63	pv	2.850000	-20.075000	-23.887500	0 0 0
	64	pv	2.850000	-20.075000	-26.617500	0 0 0
	65	pv	2.850000	-20.075000	-29.347500	0 0 0
	66	pv	2.850000	-23.725000	-0.682500	0 0 0
	67	pv	2.850000	-23.725000	-3.412500	0 0 0
	68	pv	2.850000	-23.725000	-6.142500	0 0 0
	69	pv	2.850000	-23.725000	-8.872500	0 0 0
	70	pv	2.850000	-23.725000	-11.602500	0 0 0
	71	pv	2.850000	-23.725000	-14.332500	0 0 0
	72	pv	2.850000	-23.725000	-17.062500	0 0 0
	73	pv	2.850000	-23.725000	-19.792500	0 0 0
	74	pv	2.850000	-23.725000	-22.522500	0 0 0
	75	pv	2.850000	-23.725000	-25.252500	0 0 0
	76	pv	2.850000	-23.725000	-27.982500	0 0 0
	77	pv	2.850000	-27.375000	-2.047500	0 0 0
	78	pv	2.850000	-27.375000	-4.777500	0 0 0
	79	pv	2.850000	-27.375000	-7.507500	0 0 0
	80	pv	2.850000	-27.375000	-10.237500	0 0 0
	81	pv	2.850000	-27.375000	-12.967500	0 0 0
	82	pv	2.850000	-27.375000	-15.697500	0 0 0
	83	pv	2.850000	-27.375000	-18.427500	0 0 0
	84	pv	2.850000	-27.375000	-21.157500	0 0 0
	85	pv	2.850000	-27.375000	-23.887500	0 0 0
	86	pv	2.850000	-27.375000	-26.617500	0 0 0
	87	pv	2.850000	-27.375000	-29.347500	0 0 0
	88	pv	2.850000	-31.025000	-0.682500	0 0 0
	89	pv	2.850000	-31.025000	-3.412500	0 0 0
	90	pv	2.850000	-31.025000	-6.142500	0 0 0
	91	pv	2.850000	-31.025000	-8.872500	0 0 0
	92	pv	2.850000	-31.025000	-11.602500	0 0 0
	93	pv	2.850000	-31.025000	-14.332500	0 0 0
	94	pv	2.850000	-31.025000	-17.062500	0 0 0
	95	pv	2.850000	-31.025000	-19.792500	0 0 0
	96	pv	2.850000	-31.025000	-22.522500	0 0 0
	97	pv	2.850000	-31.025000	-25.252500	0 0 0
	98	pv	2.850000	-31.025000	-27.982500	0 0 0
	99	pv	2.850000	-34.675000	-2.047500	0 0 0
	100	pv	2.850000	-34.675000	-4.777500	0 0 0
	101	pv	2.850000	-34.675000	-7.507500	0 0 0
	102	pv	2.850000	-34.675000	-10.237500	0 0 0
	103	pv	2.850000	-34.675000	-12.967500	0 0 0
	104	pv	2.850000	-34.675000	-15.697500	0 0 0
	105	pv	2.850000	-34.675000	-18.427500	0 0 0
	106	pv	2.850000	-34.675000	-21.157500	0 0 0
	107	pv	2.850000	-34.675000	-23.887500	0 0 0
	108	pv	2.850000	-34.675000	-26.617500	0 0 0
	109	pv	2.850000	-34.675000	-29.347500	0 0 0
	110	pv	8.550000	-1.825000	-2.047500	0 0 0
	111	pv	8.550000	-1.825000	-4.777500	0 0 0
	112	pv	8.550000	-1.825000	-7.507500	0 0 0
	113	pv	8.550000	-1.825000	-10.237500	0 0 0
	114	pv	8.550000	-1.825000	-12.967500	0 0 0
	115	pv	8.550000	-1.825000	-15.697500	0 0 0
	116	pv	8.550000	-1.825000	-18.427500	0 0 0
	117	pv	8.550000	-1.825000	-21.157500	0 0 0
	118	pv	8.550000	-1.825000	-23.887500	0 0 0
	119	pv	8.550000	-1.825000	-26.617500	0 0 0
	120	pv	8.550000	-1.825000	-29.347500	0 0 0
	121	pv	8.550000	-5.475000	-0.682500	0 0 0
	122	pv	8.550000	-5.475000	-3.412500	0 0 0
	123	pv	8.550000	-5.475000	-6.142500	0 0 0
	124	pv	8.550000	-5.475000	-8.872500	0 0 0
	125	pv	8.550000	-5.475000	-11.602500	0 0 0
	126	pv	8.550000	-5.475000	-14.332500	0 0 0
	127	pv	8.550000	-5.475000	-17.062500	0 0 0
	128	pv	8.550000	-5.475000	-19.792500	0 0 0
	129	pv	8.550000	-5.475000	-22.522500	0 0 0
	130	pv	8.550000	-5.475000	-25.252500	0 0 0
	131	pv	8.550000	-5.475000	-27.982500	0 0 0
	132	pv	8.550000	-9.125000	-2.047500	0 0 0
	133	pv	8.550000	-9.125000	-4.777500	0 0 0
	134	pv	8.550000	-9.125000	-7.507500	0 0 0
	135	pv	8.550000	-9.125000	-10.237500	0 0 0
	136	pv	8.550000	-9.125000	-12.967500	0 0 0
	137	pv	8.550000	-9.125000	-15.697500	0 0 0
	138	pv	8.550000	-9.125000	-18.427500	0 0 0
	139	pv	8.550000	-9.125000	-21.157500	0 0 0
	140	pv	8.550000	-9.125000	-23.887500	0 0 0
	141	pv	8.550000	-9.125000	-26.617500	0 0 0
	142	pv	8.550000	-9.125000	-29.347500	0 0 0
	143	pv	8.550000	-12.775000	-0.682500	0 0 0
	144	pv	8.550000	-12.775000	-3.412500	0 0 0
	145	pv	8.550000	-12.775000	-6.142500	0 0 0
	146	pv	8.550000	-12.775000	-8.872500	0 0 0
	147	pv	8.550000	-12.775000	-11.602500	0 0 0
	148	pv	8.550000	-12.775000	-14.332500	0 0 0
	149	pv	8.550000	-12.775000	-17.062500	0 0 0
	150	pv	8.550000	-12.775000	-19.792500	0 0 0
	151	pv	8.550000	-12.775000	-22.522500	0 0 0
	152	pv	8.550000	-12.775000	-25.252500	0 0 0
	153	pv	8.550000	-12.775000	-27.982500	0 0 0
	154	pv	8.550000	-16.425000	-2.047500	0 0 0
	155	pv	8.550000	-16.425000	-4.777500	0 0 0
	156	pv	8.550000	-16.425000	-7.507500	0 0 0
	157	pv	8.550000	-16.425000	-10.237500	0 0 0
	158	pv	8.550000	-16.425000	-12.967500	0 0 0
	159	pv	8.550000	-16.425000	-15.697500	0 0 0
	160	pv	8.550000	-16.425000	-18.427500	0 0 0
	161	pv	8.550000	-16.425000	-21.157500	0 0 0
	162	pv	8.550000	-16.425000	-23.887500	0 0 0
	163	pv	8.550000	-16.425000	-26.617500	0 0 0
	164	pv	8.550000	-16.425000	-29.347500	0 0 0
	165	pv	8.550000	-20.075000	-0.682500	0 0 0
	166	pv	8.550000	-20.075000	-3.412500	0 0 0
	167	pv	8.550000	-20.075000	-6.142500	0 0 0
	168	pv	8.550000	-20.075000	-8.872500	0 0 0
	169	pv	8.550000	-20.075000	-11.602500	0 0 0
	170	pv	8.550000	-20.075000	-14.332500	0 0 0
	171	pv	8.550000	-20.075000	-17.062500	0 0 0
	172	pv	8.550000	-20.075000	-19.792500	0 0 0
	173	pv	8.550000	-20.075000	-22.522500	0 0 0
	174	pv	8.550000	-20.075000	-25.252500	0 0 0
	175	pv	8.550000	-20.075000	-27.982500	0 0 0
	176	pv	8.550000	-23.725000	-2.047500	0 0 0
	177	pv	8.550000	-23.725000	-4.777500	0 0 0
	178	pv	8.550000	-23.725000	-7.507500	0 0 0
	179	pv	8.550000	-23.725000	-10.237500	0 0 0
	180	pv	8.550000	-23.725000	-12.967500	0 0 0
	181	pv	8.550000	-23.725000	-15.697500	0 0 0
	182	pv	8.550000	-23.725000	-18.427500	0 0 0
	183	pv	8.550000	-23.725000	-21.157500	0 0 0
	184	pv	8.550000	-23.725000	-23.887500	0 0 0
	185	pv	8.550000	-23.725000	-26.617500	0 0 0
	186	pv	8.550000	-23.725000	-29.347500	0 0 0
	187	pv	8.550000	-27.375000	-0.682500	0 0 0
	188	pv	8.550000	-27.375000	-3.412500	0 0 0
	189	pv	8.550000	-27.375000	-6.142500	0 0 0
	190	pv	8.550000	-27.375000	-8.872500	0 0 0
	191	pv	8.550000	-27.375000	-11.602500	0 0 0
	192	pv	8.550000	-27.375000	-14.332500	0 0 0
	193	pv	8.550000	-27.375000	-17.062500	0 0 0
	194	pv	8.550000	-27.375000	-19.792500	0 0 0
	195	pv	8.550000	-27.375000	-22.522500	0 0 0
	196	pv	8.550000	-27.375000	-25.252500	0 0 0
	197	pv	8.550000	-27.375000	-27.982500	0 0 0
	198	pv	8.550000	-31.025000	-2.047500	0 0 0
	199	pv	8.550000	-31.025000	-4.777500	0 0 0
	200	pv	8.550000	-31.025000	-7.507500	0 0 0
	201	pv	8.550000	-31.025000	-10.237500	0 0 0
	202	pv	8.550000	-31.025000	-12.967500	0 0 0
	203	pv	8.550000	-31.025000	-15.697500	0 0 0
	204	pv	8.550000	-31.025000	-18.427500	0 0 0
	205	pv	8.550000	-31.025000	-21.157500	0 0 0
	206	pv	8.550000	-31.025000	-23.887500	0 0 0
	207	pv	8.550000	-31.025000	-26.617500	0 0 0
	208	pv	8.550000	-31.025000	-29.347500	0 0 0
	209	pv	8.550000	-34.675000	-0.682500	0 0 0
	210	pv	8.550000	-34.675000	-3.412500	0 0 0
	211	pv	8.550000	-34.675000	-6.142500	0 0 0
	212	pv	8.550000	-34.675000	-8.872500	0 0 0
	213	pv	8.550000	-34.675000	-11.602500	0 0 0
	214	pv	8.550000	-34.675000	-14.332500	0 0 0
	215	pv	8.550000	-34.675000	-17.062500	0 0 0
	216	pv	8.550000	-34.675000	-19.792500	0 0 0
	217	pv	8.550000	-34.675000	-22.522500	0 0 0
	218	pv	8.550000	-34.675000	-25.252500	0 0 0
	219	pv	8.550000	-34.675000	-27.982500	0 0 0
	220	pv	14.250000	-1.825000	-0.682500	0 0 0
	221	pv	14.250000	-1.825000	-3.412500	0 0 0
	222	pv	14.250000	-1.825000	-6.142500	0 0 0
	223	pv	14.250000	-1.825000	-8.872500	0 0 0
	224	pv	14.250000	-1.825000	-11.602500	0 0 0
	225	pv	14.250000	-1.825000	-14.332500	0 0 0
	226	pv	14.250000	-1.825000	-17.062500	0 0 0
	227	pv	14.250000	-1.825000	-19.792500	0 0 0
	228	pv	14.250000	-1.825000	-22.522500	0 0 0
	229	pv	14.250000	-1.825000	-25.252500	0 0 0
	230	pv	14.250000	-1.825000	-27.982500	0 0 0
	231	pv	14.250000	-5.475000	-2.047500	0 0 0
	232	pv	14.250000	-5.475000	-4.777500	0 0 0
	233	pv	14.250000	-5.475000	-7.507500	0 0 0
	234	pv	14.250000	-5.475000	-10.237500	0 0 0
	235	pv	14.250000	-5.475000	-12.967500	0 0 0
	236	pv	14.250000	-5.475000	-15.697500	0 0 0
	237	pv	14.250000	-5.475000	-18.427500	0 0 0
	238	pv	14.250000	-5.475000	-21.157500	0 0 0
	239	pv	14.250000	-5.475000	-23.887500	0 0 0
	240	pv	14.250000	-5.475000	-26.617500	0 0 0
	241	pv	14.250000	-5.475000	-29.347500	0 0 0
	242	pv	14.250000	-9.125000	-0.682500	0 0 0
	243	pv	14.250000	-9.125000	-3.412500	0 0 0
	244	pv	14.250000	-9.125000	-6.142500	0 0 0
	245	pv	14.250000	-9.125000	-8.872500	0 0 0
	246	pv	14.250000	-9.125000	-11.602500	0 0 0
	247	pv	14.250000	-9.125000	-14.332500	0 0 0
	248	pv	14.250000	-9.125000	-17.062500	0 0 0
	249	pv	14.250000	-9.125000	-19.792500	0 0 0
	250	pv	14.250000	-9.125000	-22.522500	0 0 0
	251	pv	14.250000	-9.125000	-25.252500	0 0 0
	252	pv	14.250000	-9.125000	-27.982500	0 0 0
	253	pv	14.250000	-12.775000	-2.047500	0 0 0
	254	pv	14.250000	-12.775000	-4.777500	0 0 0
	255	pv	14.250000	-12.775000	-7.507500	0 0 0
	256	pv	14.250000	-12.775000	-10.237500	0 0 0
	257	pv	14.250000	-12.775000	-12.967500	0 0 0
	258	pv	14.250000	-12.775000	-15.697500	0 0 0
	259	pv	14.250000	-12.775000	-18.427500	0 0 0
	260	pv	14.250000	-12.775000	-21.157500	0 0 0
	261	pv	14.250000	-12.775000	-23.887500	0 0 0
	262	pv	14.250000	-12.775000	-26.617500	0 0 0
	263	pv	14.250000	-12.775000	-29.347500	0 0 0
	264	pv	14.250000	-16.425000	-0.682500	0 0 0
	265	pv	14.250000	-16.425000	-3.412500	0 0 0
	266	pv	14.250000	-16.425000	-6.142500	0 0 0
	267	pv	14.250000	-16.425000	-8.872500	0 0 0
	268	pv	14.250000	-16.425000	-11.602500	0 0 0
	269	pv	14.250000	-16.425000	-14.332500	0 0 0
	270	pv	14.250000	-16.425000	-17.062500	0 0 0
	271	pv	14.250000	-16.425000	-19.792500	0 0 0
	272	pv	14.250000	-16.425000	-22.522500	0 0 0
	273	pv	14.250000	-16.425000	-25.252500	0 0 0
	274	pv	14.250000	-16.425000	-27.982500	0 0 0
	275	pv	14.250000	-20.075000	-2.047500	0 0 0
	276	pv	14.250000	-20.075000	-4.777500	0 0 0
	277	pv	14.250000	-20.075000	-7.507500	0 0 0
	278	pv	14.250000	-20.075000	-10.237500	0 0 0
	279	pv	14.250000	-20.075000	-12.967500	0 0 0
	280	pv	14.250000	-20.075000	-15.697500	0 0 0
	281	pv	14.250000	-20.075000	-18.427500	0 0 0
	282	pv	14.250000	-20.075000	-21.157500	0 0 0
	283	pv	14.250000	-20.075000	-23.887500	0 0 0
	284	pv	14.250000	-20.075000	-26.617500	0 0 0
	285	pv	14.250000	-20.075000	-29.347500	0 0 0
	286	pv	14.250000	-23.725000	-0.682500	0 0 0
	287	pv	14.250000	-23.725000	-3.412500	0 0 0
	288	pv	14.250000	-23.725000	-6.142500	0 0 0
	289	pv	14.250000	-23.725000	-8.872500	0 0 0
	290	pv	14.250000	-23.725000	-11.602500	0 0 0
	291	pv	14.250000	-23.725000	-14.332500	0 0 0
	292	pv	14.250000	-23.725000	-17.062500	0 0 0
	293	pv	14.250000	-23.725000	-19.792500	0 0 0
	294	pv	14.250000	-23.725000	-22.522500	0 0 0
	295	pv	14.250000	-23.725000	-25.252500	0 0 0
	296	pv	14.250000	-23.725000	-27.982500	0 0 0
	297	pv	14.250000	-27.375000	-2.047500	0 0 0
	298	pv	14.250000	-27.375000	-4.777500	0 0 0
	299	pv	14.250000	-27.375000	-7.507500	0 0 0
	300	pv	14.250000	-27.375000	-10.237500	0 0 0
	301	pv	14.250000	-27.375000	-12.967500	0 0 0
	302	pv	14.250000	-27.375000	-15.697500	0 0 0
	303	pv	14.250000	-27.375000	-18.427500	0 0 0
	304	pv	14.250000	-27.375000	-21.157500	0 0 0
	305	pv	14.250000	-27.375000	-23.887500	0 0 0
	306	pv	14.250000	-27.375000	-26.617500	0 0 0
	307	pv	14.250000	-27.375000	-29.347500	0 0 0
	308	pv	14.250000	-31.025000	-0.682500	0 0 0
	309	pv	14.250000	-31.025000	-3.412500	0 0 0
	310	pv	14.250000	-31.025000	-6.142500	0 0 0
	311	pv	14.250000	-31.025000	-8.872500	0 0 0
	312	pv	14.250000	-31.025000	-11.602500	0 0 0
	313	pv	14.250000	-31.025000	-14.332500	0 0 0
	314	pv	14.250000	-31.025000	-17.062500	0 0 0
	315	pv	14.250000	-31.025000	-19.792500	0 0 0
	316	pv	14.250000	-31.025000	-22.522500	0 0 0
	317	pv	14.250000	-31.025000	-25.252500	0 0 0
	318	pv	14.250000	-31.025000	-27.982500	0 0 0
	319	pv	14.250000	-34.675000	-2.047500	0 0 0
	320	pv	14.250000	-34.675000	-4.777500	0 0 0
	321	pv	14.250000	-34.675000	-7.507500	0 0 0
	322	pv	14.250000	-34.675000	-10.237500	0 0 0
	323	pv	14.250000	-34.675000	-12.967500	0 0 0
	324	pv	14.250000	-34.675000	-15.697500	0 0 0
	325	pv	14.250000	-34.675000	-18.427500	0 0 0
	326	pv	14.250000	-34.675000	-21.157500	0 0 0
	327	pv	14.250000	-34.675000	-23.887500	0 0 0
	328	pv	14.250000	-34.675000	-26.617500	0 0 0
	329	pv	14.250000	-34.675000	-29.347500	0 0 0
	330	pv	19.950000	-1.825000	-2.047500	0 0 0
	331	pv	19.950000	-1.825000	-4.777500	0 0 0
	332	pv	19.950000	-1.825000	-7.507500	0 0 0
	333	pv	19.950000	-1.825000	-10.237500	0 0 0
	334	pv	19.950000	-1.825000	-12.967500	0 0 0
	335	pv	19.950000	-1.825000	-15.697500	0 0 0
	336	pv	19.950000	-1.825000	-18.427500	0 0 0
	337	pv	19.950000	-1.825000	-21.157500	0 0 0
	338	pv	19.950000	-1.825000	-23.887500	0 0 0
	339	pv	19.950000	-1.825000	-26.617500	0 0 0
	340	pv	19.950000	-1.825000	-29.347500	0 0 0
	341	pv	19.950000	-5.475000	-0.682500	0 0 0
	342	pv	19.950000	-5.475000	-3.412500	0 0 0
	343	pv	19.950000	-5.475000	-6.142500	0 0 0
	344	pv	19.950000	-5.475000	-8.872500	0 0 0
	345	pv	19.950000	-5.475000	-11.602500	0 0 0
	346	pv	19.950000	-5.475000	-14.332500	0 0 0
	347	pv	19.950000	-5.475000	-17.062500	0 0 0
	348	pv	19.950000	-5.475000	-19.792500	0 0 0
	349	pv	19.950000	-5.475000	-22.522500	0 0 0
	350	pv	19.950000	-5.475000	-25.252500	0 0 0
	351	pv	19.950000	-5.475000	-27.982500	0 0 0
	352	pv	19.950000	-9.125000	-2.047500	0 0 0
	353	pv	19.950000	-9.125000	-4.777500	0 0 0
	354	pv	19.950000	-9.125000	-7.507500	0 0 0
	355	pv	19.950000	-9.125000	-10.237500	0 0 0
	356	pv	19.950000	-9.125000	-12.967500	0 0 0
	357	pv	19.950000	-9.125000	-15.697500	0 0 0
	358	pv	19.950000	-9.125000	-18.427500	0 0 0
	359	pv	19.950000	-9.125000	-21.157500	0 0 0
	360	pv	19.950000	-9.125000	-23.887500	0 0 0
	361	pv	19.950000	-9.125000	-26.617500	0 0 0
	362	pv	19.950000	-9.125000	-29.347500	0 0 0
	363	pv	19.950000	-12.775000	-0.682500	0 0 0
	364	pv	19.950000	-12.775000	-3.412500	0 0 0
	365	pv	19.950000	-12.775000	-6.142500	0 0 0
	366	pv	19.950000	-12.775000	-8.872500	0 0 0
	367	pv	19.950000	-12.775000	-11.602500	0 0 0
	368	pv	19.950000	-12.775000	-14.332500	0 0 0
	369	pv	19.950000	-12.775000	-17.062500	0 0 0
	370	pv	19.950000	-12.775000	-19.792500	0 0 0
	371	pv	19.950000	-12.775000	-22.522500	0 0 0
	372	pv	19.950000	-12.775000	-25.252500	0 0 0
	373	pv	19.950000	-12.775000	-27.982500	0 0 0
	374	pv	19.950000	-16.425000	-2.047500	0 0 0
	375	pv	19.950000	-16.425000	-4.777500	0 0 0
	376	pv	19.950000	-16.425000	-7.507500	0 0 0
	377	pv	19.950000	-16.425000	-10.237500	0 0 0
	378	pv	19.950000	-16.425000	-12.967500	0 0 0
	379	pv	19.950000	-16.425000	-15.697500	0 0 0
	380	pv	19.950000	-16.425000	-18.427500	0 0 0
	381	pv	19.950000	-16.425000	-21.157500	0 0 0
	382	pv	19.950000	-16.425000	-23.887500	0 0 0
	383	pv	19.950000	-16.425000	-26.617500	0 0 0
	384	pv	19.950000	-16.425000	-29.347500	0 0 0
	385	pv	19.950000	-20.075000	-0.682500	0 0 0
	386	pv	19.950000	-20.075000	-3.412500	0 0 0
	387	pv	19.950000	-20.075000	-6.142500	0 0 0
	388	pv	19.950000	-20.075000	-8.872500	0 0 0
	389	pv	19.950000	-20.075000	-11.602500	0 0 0
	390	pv	19.950000	-20.075000	-14.332500	0 0 0
	391	pv	19.950000	-20.075000	-17.062500	0 0 0
	392	pv	19.950000	-20.075000	-19.792500	0 0 0
	393	pv	19.950000	-20.075000	-22.522500	0 0 0
	394	pv	19.950000	-20.075000	-25.252500	0 0 0
	395	pv	19.950000	-20.075000	-27.982500	0 0 0
	396	pv	19.950000	-23.725000	-2.047500	0 0 0
	397	pv	19.950000	-23.725000	-4.777500	0 0 0
	398	pv	19.950000	-23.725000	-7.507500	0 0 0
	399	pv	19.950000	-23.725000	-10.237500	0 0 0
	400	pv	19.950000	-23.725000	-12.967500	0 0 0
	401	pv	19.950000	-23.725000	-15.697500	0 0 0
	402	pv	19.950000	-23.725000	-18.427500	0 0 0
	403	pv	19.950000	-23.725000	-21.157500	0 0 0
	404	pv	19.950000	-23.725000	-23.887500	0 0 0
	405	pv	19.950000	-23.725000	-26.617500	0 0 0
	406	pv	19.950000	-23.725000	-29.347500	0 0 0
	407	pv	19.950000	-27.375000	-0.682500	0 0 0
	408	pv	19.950000	-27.375000	-3.412500	0 0 0
	409	pv	19.950000	-27.375000	-6.142500	0 0 0
	410	pv	19.950000	-27.375000	-8.872500	0 0 0
	411	pv	19.950000	-27.375000	-11.602500	0 0 0
	412	pv	19.950000	-27.375000	-14.332500	0 0 0
	413	pv	19.950000	-27.375000	-17.062500	0 0 0
	414	pv	19.950000	-27.375000	-19.792500	0 0 0
	415	pv	19.950000	-27.375000	-22.522500	0 0 0
	416	pv	19.950000	-27.375000	-25.252500	0 0 0
	417	pv	19.950000	-27.375000	-27.982500	0 0 0
	418	pv	19.950000	-31.025000	-2.047500	0 0 0
	419	pv	19.950000	-31.025000	-4.777500	0 0 0
	420	pv	19.950000	-31.025000	-7.507500	0 0 0
	421	pv	19.950000	-31.025000	-10.237500	0 0 0
	422	pv	19.950000	-31.025000	-12.967500	0 0 0
	423	pv	19.950000	-31.025000	-15.697500	0 0 0
	424	pv	19.950000	-31.025000	-18.427500	0 0 0
	425	pv	19.950000	-31.025000	-21.157500	0 0 0
	426	pv	19.950000	-31.025000	-23.887500	0 0 0
	427	pv	19.950000	-31.025000	-26.617500	0 0 0
	428	pv	19.950000	-31.025000	-29.347500	0 0 0
	429	pv	19.950000	-34.675000	-0.682500	0 0 0
	430	pv	19.950000	-34.675000	-3.412500	0 0 0
	431	pv	19.950000	-34.675000	-6.142500	0 0 0
	432	pv	19.950000	-34.675000	-8.872500	0 0 0
	433	pv	19.950000	-34.675000	-11.602500	0 0 0
	434	pv	19.950000	-34.675000	-14.332500	0 0 0
	435	pv	19.950000	-34.675000	-17.062500	0 0 0
	436	pv	19.950000	-34.675000	-19.792500	0 0 0
	437	pv	19.950000	-34.675000	-22.522500	0 0 0
	438	pv	19.950000	-34.675000	-25.252500	0 0 0
	439	pv	19.950000	-34.675000	-27.982500	0 0 0
	440	pv	25.650000	-1.825000	-0.682500	0 0 0
	441	pv	25.650000	-1.825000	-3.412500	0 0 0
	442	pv	25.650000	-1.825000	-6.142500	0 0 0
	443	pv	25.650000	-1.825000	-8.872500	0 0 0
	444	pv	25.650000	-1.825000	-11.602500	0 0 0
	445	pv	25.650000	-1.825000	-14.332500	0 0 0
	446	pv	25.650000	-1.825000	-17.062500	0 0 0
	447	pv	25.650000	-1.825000	-19.792500	0 0 0
	448	pv	25.650000	-1.825000	-22.522500	0 0 0
	449	pv	25.650000	-1.825000	-25.252500	0 0 0
	450	pv	25.650000	-1.825000	-27.982500	0 0 0
	451	pv	25.650000	-5.475000	-2.047500	0 0 0
	452	pv	25.650000	-5.475000	-4.777500	0 0 0
	453	pv	25.650000	-5.475000	-7.507500	0 0 0
	454	pv	25.650000	-5.475000	-10.237500	0 0 0
	455	pv	25.650000	-5.475000	-12.967500	0 0 0
	456	pv	25.650000	-5.475000	-15.697500	0 0 0
	457	pv	25.650000	-5.475000	-18.427500	0 0 0
	458	pv	25.650000	-5.475000	-21.157500	0 0 0
	459	pv	25.650000	-5.475000	-23.887500	0 0 0
	460	pv	25.650000	-5.475000	-26.617500	0 0 0
	461	pv	25.650000	-5.475000	-29.347500	0 0 0
	462	pv	25.650000	-9.125000	-0.682500	0 0 0
	463	pv	25.650000	-9.125000	-3.412500	0 0 0
	464	pv	25.650000	-9.125000	-6.142500	0 0 0
	465	pv	25.650000	-9.125000	-8.872500	0 0 0
	466	pv	25.650000	-9.125000	-11.602500	0 0 0
	467	pv	25.650000	-9.125000	-14.332500	0 0 0
	468	pv	25.650000	-9.125000	-17.062500	0 0 0
	469	pv	25.650000	-9.125000	-19.792500	0 0 0
	470	pv	25.650000	-9.125000	-22.522500	0 0 0
	471	pv	25.650000	-9.125000	-25.252500	0 0 0
	472	pv	25.650000	-9.125000	-27.982500	0 0 0
	473	pv	25.650000	-12.775000	-2.047500	0 0 0
	474	pv	25.650000	-12.775000	-4.777500	0 0 0
	475	pv	25.650000	-12.775000	-7.507500	0 0 0
	476	pv	25.650000	-12.775000	-10.237500	0 0 0
	477	pv	25.650000	-12.775000	-12.967500	0 0 0
	478	pv	25.650000	-12.775000	-15.697500	0 0 0
	479	pv	25.650000	-12.775000	-18.427500	0 0 0
	480	pv	25.650000	-12.775000	-21.157500	0 0 0
	481	pv	25.650000	-12.775000	-23.887500	0 0 0
	482	pv	25.650000	-12.775000	-26.617500	0 0 0
	483	pv	25.650000	-12.775000	-29.347500	0 0 0
	484	pv	25.650000	-16.425000	-0.682500	0 0 0
	485	pv	25.650000	-16.425000	-3.412500	0 0 0
	486	pv	25.650000	-16.425000	-6.142500	0 0 0
	487	pv	25.650000	-16.425000	-8.872500	0 0 0
	488	pv	25.650000	-16.425000	-11.602500	0 0 0
	489	pv	25.650000	-16.425000	-14.332500	0 0 0
	490	pv	25.650000	-16.425000	-17.062500	0 0 0
	491	pv	25.650000	-16.425000	-19.792500	0 0 0
	492	pv	25.650000	-16.425000	-22.522500	0 0 0
	493	pv	25.650000	-16.425000	-25.252500	0 0 0
	494	pv	25.650000	-16.425000	-27.982500	0 0 0
	495	pv	25.650000	-20.075000	-2.047500	0 0 0
	496	pv	25.650000	-20.075000	-4.777500	0 0 0
	497	pv	25.650000	-20.075000	-7.507500	0 0 0
	498	pv	25.650000	-20.075000	-10.237500	0 0 0
	499	pv	25.650000	-20.075000	-12.967500	0 0 0
	500	pv	25.650000	-20.075000	-15.697500	0 0 0
	501	pv	25.650000	-20.075000	-18.427500	0 0 0
	502	pv	25.650000	-20.075000	-21.157500	0 0 0
	503	pv	25.650000	-20.075000	-23.887500	0 0 0
	504	pv	25.650000	-20.075000	-26.617500	0 0 0
	505	pv	25.650000	-20.075000	-29.347500	0 0 0
	506	pv	25.650000	-23.725000	-0.682500	0 0 0
	507	pv	25.650000	-23.725000	-3.412500	0 0 0
	508	pv	25.650000	-23.725000	-6.142500	0 0 0
	509	pv	25.650000	-23.725000	-8.872500	0 0 0
	510	pv	25.650000	-23.725000	-11.602500	0 0 0
	511	pv	25.650000	-23.725000	-14.332500	0 0 0
	512	pv	25.650000	-23.725000	-17.062500	0 0 0
	513	pv	25.650000	-23.725000	-19.792500	0 0 0
	514	pv	25.650000	-23.725000	-22.522500	0 0 0
	515	pv	25.650000	-23.725000	-25.252500	0 0 0
	516	pv	25.650000	-23.725000	-27.982500	0 0 0
	517	pv	25.650000	-27.375000	-2.047500	0 0 0
	518	pv	25.650000	-27.375000	-4.777500	0 0 0
	519	pv	25.650000	-27.375000	-7.507500	0 0 0
	520	pv	25.650000	-27.375000	-10.237500	0 0 0
	521	pv	25.650000	-27.375000	-12.967500	0 0 0
	522	pv	25.650000	-27.375000	-15.697500	0 0 0
	523	pv	25.650000	-27.375000	-18.427500	0 0 0
	524	pv	25.650000	-27.375000	-21.157500	0 0 0
	525	pv	25.650000	-27.375000	-23.887500	0 0 0
	526	pv	25.650000	-27.375000	-26.617500	0 0 0
	527	pv	25.650000	-27.375000	-29.347500	0 0 0
	528	pv	25.650000	-31.025000	-0.682500	0 0 0
	529	pv	25.650000	-31.025000	-3.412500	0 0 0
	530	pv	25.650000	-31.025000	-6.142500	0 0 0
	531	pv	25.650000	-31.025000	-8.872500	0 0 0
	532	pv	25.650000	-31.025000	-11.602500	0 0 0
	533	pv	25.650000	-31.025000	-14.332500	0 0 0
	534	pv	25.650000	-31.025000	-17.062500	0 0 0
	535	pv	25.650000	-31.025000	-19.792500	0 0 0
	536	pv	25.650000	-31.025000	-22.522500	0 0 0
	537	pv	25.650000	-31.025000	-25.252500	0 0 0
	538	pv	25.650000	-31.025000	-27.982500	0 0 0
	539	pv	25.650000	-34.675000	-2.047500	0 0 0
	540	pv	25.650000	-34.675000	-4.777500	0 0 0
	541	pv	25.650000	-34.675000	-7.507500	0 0 0
	542	pv	25.650000	-34.675000	-10.237500	0 0 0
	543	pv	25.650000	-34.675000	-12.967500	0 0 0
	544	pv	25.650000	-34.675000	-15.697500	0 0 0
	545	pv	25.650000	-34.675000	-18.427500	0 0 0
	546	pv	25.650000	-34.675000	-21.157500	0 0 0
	547	pv	25.650000	-34.675000	-23.887500	0 0 0
	548	pv	25.650000	-34.675000	-26.617500	0 0 0
	549	pv	25.650000	-34.675000	-29.347500	0 0 0
	550	pv	31.350000	-1.825000	-2.047500	0 0 0
	551	pv	31.350000	-1.825000	-4.777500	0 0 0
	552	pv	31.350000	-1.825000	-7.507500	0 0 0
	553	pv	31.350000	-1.825000	-10.237500	0 0 0
	554	pv	31.350000	-1.825000	-12.967500	0 0 0
	555	pv	31.350000	-1.825000	-15.697500	0 0 0
	556	pv	31.350000	-1.825000	-18.427500	0 0 0
	557	pv	31.350000	-1.825000	-21.157500	0 0 0
	558	pv	31.350000	-1.825000	-23.887500	0 0 0
	559	pv	31.350000	-1.825000	-26.617500	0 0 0
	560	pv	31.350000	-1.825000	-29.347500	0 0 0
	561	pv	31.350000	-5.475000	-0.682500	0 0 0
	562	pv	31.350000	-5.475000	-3.412500	0 0 0
	563	pv	31.350000	-5.475000	-6.142500	0 0 0
	564	pv	31.350000	-5.475000	-8.872500	0 0 0
	565	pv	31.350000	-5.475000	-11.602500	0 0 0
	566	pv	31.350000	-5.475000	-14.332500	0 0 0
	567	pv	31.350000	-5.475000	-17.062500	0 0 0
	568	pv	31.350000	-5.475000	-19.792500	0 0 0
	569	pv	31.350000	-5.475000	-22.522500	0 0 0
	570	pv	31.350000	-5.475000	-25.252500	0 0 0
	571	pv	31.350000	-5.475000	-27.982500	0 0 0
	572	pv	31.350000	-9.125000	-2.047500	0 0 0
	573	pv	31.350000	-9.125000	-4.777500	0 0 0
	574	pv	31.350000	-9.125000	-7.507500	0 0 0
	575	pv	31.350000	-9.125000	-10.237500	0 0 0
	576	pv	31.350000	-9.125000	-12.967500	0 0 0
	577	pv	31.350000	-9.125000	-15.697500	0 0 0
	578	pv	31.350000	-9.125000	-18.427500	0 0 0
	579	pv	31.350000	-9.125000	-21.157500	0 0 0
	580	pv	31.350000	-9.125000	-23.887500	0 0 0
	581	pv	31.350000	-9.125000	-26.617500	0 0 0
	582	pv	31.350000	-9.125000	-29.347500	0 0 0
	583	pv	31.350000	-12.775000	-0.682500	0 0 0
	584	pv	31.350000	-12.775000	-3.412500	0 0 0
	585	pv	31.350000	-12.775000	-6.142500	0 0 0
	586	pv	31.350000	-12.775000	-8.872500	0 0 0
	587	pv	31.350000	-12.775000	-11.602500	0 0 0
	588	pv	31.350000	-12.775000	-14.332500	0 0 0
	589	pv	31.350000	-12.775000	-17.062500	0 0 0
	590	pv	31.350000	-12.775000	-19.792500	0 0 0
	591	pv	31.350000	-12.775000	-22.522500	0 0 0
	592	pv	31.350000	-12.775000	-25.252500	0 0 0
	593	pv	31.350000	-12.775000	-27.982500	0 0 0
	594	pv	31.350000	-16.425000	-2.047500	0 0 0
	595	pv	31.350000	-16.425000	-4.777500	0 0 0
	596	pv	31.350000	-16.425000	-7.507500	0 0 0
	597	pv	31.350000	-16.425000	-10.237500	0 0 0
	598	pv	31.350000	-16.425000	-12.967500	0 0 0
	599	pv	31.350000	-16.425000	-15.697500	0 0 0
	600	pv	31.350000	-16.425000	-18.427500	0 0 0
	601	pv	31.350000	-16.425000	-21.157500	0 0 0
	602	pv	31.350000	-16.425000	-23.887500	0 0 0
	603	pv	31.350000	-16.425000	-26.617500	0 0 0
	604	pv	31.350000	-16.425000	-29.347500	0 0 0
	605	pv	31.350000	-20.075000	-0.682500	0 0 0
	606	pv	31.350000	-20.075000	-3.412500	0 0 0
	607	pv	31.350000	-20.075000	-6.142500	0 0 0
	608	pv	31.350000	-20.075000	-8.872500	0 0 0
	609	pv	31.350000	-20.075000	-11.602500	0 0 0
	610	pv	31.350000	-20.075000	-14.332500	0 0 0
	611	pv	31.350000	-20.075000	-17.062500	0 0 0
	612	pv	31.350000	-20.075000	-19.792500	0 0 0
	613	pv	31.350000	-20.075000	-22.522500	0 0 0
	614	pv	31.350000	-20.075000	-25.252500	0 0 0
	615	pv	31.350000	-20.075000	-27.982500	0 0 0
	616	pv	31.350000	-23.725000	-2.047500	0 0 0
	617	pv	31.350000	-23.725000	-4.777500	0 0 0
	618	pv	31.350000	-23.725000	-7.507500	0 0 0
	619	pv	31.350000	-23.725000	-10.237500	0 0 0
	620	pv	31.350000	-23.725000	-12.967500	0 0 0
	621	pv	31.350000	-23.725000	-15.697500	0 0 0
	622	pv	31.350000	-23.725000	-18.427500	0 0 0
	623	pv	31.350000	-23.725000	-21.157500	0 0 0
	624	pv	31.350000	-23.725000	-23.887500	0 0 0
	625	pv	31.350000	-23.725000	-26.617500	0 0 0
	626	pv	31.350000	-23.725000	-29.347500	0 0 0
	627	pv	31.350000	-27.375000	-0.682500	0 0 0
	628	pv	31.350000	-27.375000	-3.412500	0 0 0
	629	pv	31.350000	-27.375000	-6.142500	0 0 0
	630	pv	31.350000	-27.375000	-8.872500	0 0 0
	631	pv	31.350000	-27.375000	-11.602500	0 0 0
	632	pv	31.350000	-27.375000	-14.332500	0 0 0
	633	pv	31.350000	-27.375000	-17.062500	0 0 0
	634	pv	31.350000	-27.375000	-19.792500	0 0 0
	635	pv	31.350000	-27.375000	-22.522500	0 0 0
	636	pv	31.350000	-27.375000	-25.252500	0 0 0
	637	pv	31.350000	-27.375000	-27.982500	0 0 0
	638	pv	31.350000	-31.025000	-2.047500	0 0 0
	639	pv	31.350000	-31.025000	-4.777500	0 0 0
	640	pv	31.350000	-31.025000	-7.507500	0 0 0
	641	pv	31.350000	-31.025000	-10.237500	0 0 0
	642	pv	31.350000	-31.025000	-12.967500	0 0 0