<OpenMD version=1>
  <MetaData>

molecule{
  name = "Fe";

  atom[0]{
    type="Fe_FQ";
    position( 0.0, 0.0, 0.0 );
  }
}

molecule{
  name = "O";

  atom[0]{
    type="O_FQ";
    position( 0.0, 0.0, 0.0 );
  }
}

component{
  type = "Fe";
        nMol = 1200;
}
component{
  type = "O";
        nMol = 2400;
}

flucQ {
  propagator = "Damped";
  targetTemp = 1;
  dragCoefficient = 1;
}

forceField = "DR-EAM";
forceFieldFileName="DR-EAM.v2.frc";

outputFluctuatingCharges = true;
outputElectricField = true;
outputDensity = true;

ensemble = NVT;
dt = 0.1;
runTime = 1;
sampleTime = 1;
statusTime = 1;
targetTemp = 10;
tauthermostat = 100;

cutoffMethod = "shifted_force";
cutoffRadius = 12;
electrostaticScreeningMethod = "DAMPED";
dampingAlpha = 0.105;

statFileFormat = "TIME|TOTAL_ENERGY|POTENTIAL_ENERGY|KINETIC_ENERGY|TEMPERATURE|PRESSURE|VOLUME|CONSERVED_QUANTITY|SYSTEM DIPOLE";

  </MetaData>
  <Snapshot>
    <FrameData>
        Time: 0
        Hmat: {{ 29.7994585, 0, 0 }, { 0, 51.614174, 0 }, { 0, 0, 28.879726 }}
  Thermostat: 0 , 0
    Barostat: {{ 0, 0, 0 }, { 0, 0, 0 }, { 0, 0, 0 }}
    </FrameData>
    <StuntDoubles>
	0	pv	-4.460997	-23.221228	-11.986667	0	0	0
	1	pv	-4.460997	-23.221228	2.376518	0	0	0
	2	pv	-7.440942	-18.059811	-11.986667	0	0	0
	3	pv	-7.440942	-18.059811	2.376518	0	0	0
	4	pv	1.498895	-23.221228	-11.986667	0	0	0
	5	pv	1.498895	-23.221228	2.376518	0	0	0
	6	pv	-1.481051	-18.059811	-11.986667	0	0	0
	7	pv	-1.481051	-18.059811	2.376518	0	0	0
	8	pv	-4.460997	-12.898393	-11.986667	0	0	0
	9	pv	-4.460997	-12.898393	2.376518	0	0	0
	10	pv	-7.440943	-7.736975	-11.986667	0	0	0
	11	pv	-7.440943	-7.736975	2.376518	0	0	0
	12	pv	7.458786	-23.221228	-11.986667	0	0	0
	13	pv	7.458786	-23.221228	2.376518	0	0	0
	14	pv	4.478841	-18.059811	-11.986667	0	0	0
	15	pv	4.478841	-18.059811	2.376518	0	0	0
	16	pv	1.498895	-12.898393	-11.986667	0	0	0
	17	pv	1.498895	-12.898393	2.376518	0	0	0
	18	pv	-1.481051	-7.736975	-11.986667	0	0	0
	19	pv	-1.481051	-7.736975	2.376518	0	0	0
	20	pv	-4.460997	-2.575557	-11.986667	0	0	0
	21	pv	-4.460997	-2.575557	2.376518	0	0	0
	22	pv	-7.440943	2.58586	-11.986667	0	0	0
	23	pv	-7.440943	2.58586	2.376518	0	0	0
	24	pv	13.418678	-23.221228	-11.986667	0	0	0
	25	pv	13.418678	-23.221228	2.376518	0	0	0
	26	pv	10.438732	-18.059811	-11.986667	0	0	0
	27	pv	10.438732	-18.059811	2.376518	0	0	0
	28	pv	7.458786	-12.898393	-11.986667	0	0	0
	29	pv	7.458786	-12.898393	2.376518	0	0	0
	30	pv	4.478841	-7.736975	-11.986667	0	0	0
	31	pv	4.478841	-7.736975	2.376518	0	0	0
	32	pv	1.498895	-2.575557	-11.986667	0	0	0
	33	pv	1.498895	-2.575557	2.376518	0	0	0
	34	pv	-1.481051	2.58586	-11.986667	0	0	0
	35	pv	-1.481051	2.58586	2.376518	0	0	0
	36	pv	-4.460997	7.747277	-11.986667	0	0	0
	37	pv	-4.460997	7.747277	2.376518	0	0	0
	38	pv	-7.440943	12.908695	-11.986667	0	0	0
	39	pv	-7.440943	12.908695	2.376518	0	0	0
	40	pv	19.378571	-23.221228	-11.986667	0	0	0
	41	pv	19.378571	-23.221228	2.376518	0	0	0
	42	pv	16.398624	-18.059811	-11.986667	0	0	0
	43	pv	16.398624	-18.059811	2.376518	0	0	0
	44	pv	13.418678	-12.898393	-11.986667	0	0	0
	45	pv	13.418678	-12.898393	2.376518	0	0	0
	46	pv	10.438732	-7.736975	-11.986667	0	0	0
	47	pv	10.438732	-7.736975	2.376518	0	0	0
	48	pv	7.458786	-2.575557	-11.986667	0	0	0
	49	pv	7.458786	-2.575557	2.376518	0	0	0
	50	pv	4.478841	2.58586	-11.986667	0	0	0
	51	pv	4.478841	2.58586	2.376518	0	0	0
	52	pv	1.498895	7.747277	-11.986667	0	0	0
	53	pv	1.498895	7.747277	2.376518	0	0	0
	54	pv	-1.481051	12.908695	-11.986667	0	0	0
	55	pv	-1.481051	12.908695	2.376518	0	0	0
	56	pv	-4.460997	18.070112	-11.986667	0	0	0
	57	pv	-4.460997	18.070112	2.376518	0	0	0
	58	pv	-7.440943	23.231529	-11.986667	0	0	0
	59	pv	-7.440943	23.231529	2.376518	0	0	0
	60	pv	19.378571	-12.898393	-11.986667	0	0	0
	61	pv	19.378571	-12.898393	2.376518	0	0	0
	62	pv	16.398624	-7.736975	-11.986667	0	0	0
	63	pv	16.398624	-7.736975	2.376518	0	0	0
	64	pv	13.418678	-2.575557	-11.986667	0	0	0
	65	pv	13.418678	-2.575557	2.376518	0	0	0
	66	pv	10.438732	2.58586	-11.986667	0	0	0
	67	pv	10.438732	2.58586	2.376518	0	0	0
	68	pv	7.458786	7.747277	-11.986667	0	0	0
	69	pv	7.458786	7.747277	2.376518	0	0	0
	70	pv	4.478841	12.908695	-11.986667	0	0	0
	71	pv	4.478841	12.908695	2.376518	0	0	0
	72	pv	1.498895	18.070112	-11.986667	0	0	0
	73	pv	1.498895	18.070112	2.376518	0	0	0
	74	pv	-1.481051	23.231529	-11.986667	0	0	0
	75	pv	-1.481051	23.231529	2.376518	0	0	0
	76	pv	19.378571	-2.575557	-11.986667	0	0	0
	77	pv	19.378571	-2.575557	2.376518	0	0	0
	78	pv	16.398624	2.58586	-11.986667	0	0	0
	79	pv	16.398624	2.58586	2.376518	0	0	0
	80	pv	13.418677	7.747277	-11.986667	0	0	0
	81	pv	13.418677	7.747277	2.376518	0	0	0
	82	pv	10.438731	12.908695	-11.986667	0	0	0
	83	pv	10.438731	12.908695	2.376518	0	0	0
	84	pv	7.458786	18.070112	-11.986667	0	0	0
	85	pv	7.458786	18.070112	2.376518	0	0	0
	86	pv	4.47884	23.231529	-11.986667	0	0	0
	87	pv	4.47884	23.231529	2.376518	0	0	0
	88	pv	19.378571	7.747277	-11.986667	0	0	0
	89	pv	19.378571	7.747277	2.376518	0	0	0
	90	pv	16.398624	12.908695	-11.986667	0	0	0
	91	pv	16.398624	12.908695	2.376518	0	0	0
	92	pv	13.418678	18.070112	-11.986667	0	0	0
	93	pv	13.418678	18.070112	2.376518	0	0	0
	94	pv	10.438732	23.231529	-11.986667	0	0	0
	95	pv	10.438732	23.231529	2.376518	0	0	0
	96	pv	19.378571	18.070112	-11.986667	0	0	0
	97	pv	19.378571	18.070112	2.376518	0	0	0
	98	pv	16.398626	23.231529	-11.986667	0	0	0
	99	pv	16.398626	23.231529	2.376518	0	0	0
	100	pv	-7.458786	-23.221228	-11.986667	0	0	0
	101	pv	-7.458786	-23.221228	2.376518	0	0	0
	102	pv	-1.498895	-23.221228	-11.986667	0	0	0
	103	pv	-1.498895	-23.221228	2.376518	0	0	0
	104	pv	-4.47884	-18.059811	-11.986667	0	0	0
	105	pv	-4.47884	-18.059811	2.376518	0	0	0
	106	pv	-7.458786	-12.898393	-11.986667	0	0	0
	107	pv	-7.458786	-12.898393	2.376518	0	0	0
	108	pv	4.460997	-23.221228	-11.986667	0	0	0
	109	pv	4.460997	-23.221228	2.376518	0	0	0
	110	pv	1.481051	-18.059811	-11.986667	0	0	0
	111	pv	1.481051	-18.059811	2.376518	0	0	0
	112	pv	-1.498895	-12.898393	-11.986667	0	0	0
	113	pv	-1.498895	-12.898393	2.376518	0	0	0
	114	pv	-4.478841	-7.736975	-11.986667	0	0	0
	115	pv	-4.478841	-7.736975	2.376518	0	0	0
	116	pv	-7.458786	-2.575557	-11.986667	0	0	0
	117	pv	-7.458786	-2.575557	2.376518	0	0	0
	118	pv	10.420888	-23.221228	-11.986667	0	0	0
	119	pv	10.420888	-23.221228	2.376518	0	0	0
	120	pv	7.440943	-18.059811	-11.986667	0	0	0
	121	pv	7.440943	-18.059811	2.376518	0	0	0
	122	pv	4.460997	-12.898393	-11.986667	0	0	0
	123	pv	4.460997	-12.898393	2.376518	0	0	0
	124	pv	1.481051	-7.736975	-11.986667	0	0	0
	125	pv	1.481051	-7.736975	2.376518	0	0	0
	126	pv	-1.498895	-2.575557	-11.986667	0	0	0
	127	pv	-1.498895	-2.575557	2.376518	0	0	0
	128	pv	-4.478841	2.58586	-11.986667	0	0	0
	129	pv	-4.478841	2.58586	2.376518	0	0	0
	130	pv	-7.458786	7.747277	-11.986667	0	0	0
	131	pv	-7.458786	7.747277	2.376518	0	0	0
	132	pv	16.380781	-23.221228	-11.986667	0	0	0
	133	pv	16.380781	-23.221228	2.376518	0	0	0
	134	pv	13.400834	-18.059811	-11.986667	0	0	0
	135	pv	13.400834	-18.059811	2.376518	0	0	0
	136	pv	10.420888	-12.898393	-11.986667	0	0	0
	137	pv	10.420888	-12.898393	2.376518	0	0	0
	138	pv	7.440943	-7.736975	-11.986667	0	0	0
	139	pv	7.440943	-7.736975	2.376518	0	0	0
	140	pv	4.460997	-2.575557	-11.986667	0	0	0
	141	pv	4.460997	-2.575557	2.376518	0	0	0
	142	pv	1.481051	2.58586	-11.986667	0	0	0
	143	pv	1.481051	2.58586	2.376518	0	0	0
	144	pv	-1.498895	7.747277	-11.986667	0	0	0
	145	pv	-1.498895	7.747277	2.376518	0	0	0
	146	pv	-4.478841	12.908695	-11.986667	0	0	0
	147	pv	-4.478841	12.908695	2.376518	0	0	0
	148	pv	-7.458786	18.070112	-11.986667	0	0	0
	149	pv	-7.458786	18.070112	2.376518	0	0	0
	150	pv	19.360725	-18.059811	-11.986667	0	0	0
	151	pv	19.360725	-18.059811	2.376518	0	0	0
	152	pv	16.380781	-12.898393	-11.986667	0	0	0
	153	pv	16.380781	-12.898393	2.376518	0	0	0
	154	pv	13.400834	-7.736975	-11.986667	0	0	0
	155	pv	13.400834	-7.736975	2.376518	0	0	0
	156	pv	10.420888	-2.575557	-11.986667	0	0	0
	157	pv	10.420888	-2.575557	2.376518	0	0	0
	158	pv	7.440943	2.58586	-11.986667	0	0	0
	159	pv	7.440943	2.58586	2.376518	0	0	0
	160	pv	4.460997	7.747277	-11.986667	0	0	0
	161	pv	4.460997	7.747277	2.376518	0	0	0
	162	pv	1.481051	12.908695	-11.986667	0	0	0
	163	pv	1.481051	12.908695	2.376518	0	0	0
	164	pv	-1.498895	18.070112	-11.986667	0	0	0
	165	pv	-1.498895	18.070112	2.376518	0	0	0
	166	pv	-4.478841	23.231529	-11.986667	0	0	0
	167	pv	-4.478841	23.231529	2.376518	0	0	0
	168	pv	19.360725	-7.736975	-11.986667	0	0	0
	169	pv	19.360725	-7.736975	2.376518	0	0	0
	170	pv	16.380781	-2.575557	-11.986667	0	0	0
	171	pv	16.380781	-2.575557	2.376518	0	0	0
	172	pv	13.400834	2.58586	-11.986667	0	0	0
	173	pv	13.400834	2.58586	2.376518	0	0	0
	174	pv	10.420888	7.747277	-11.986667	0	0	0
	175	pv	10.420888	7.747277	2.376518	0	0	0
	176	pv	7.440943	12.908695	-11.986667	0	0	0
	177	pv	7.440943	12.908695	2.376518	0	0	0
	178	pv	4.460997	18.070112	-11.986667	0	0	0
	179	pv	4.460997	18.070112	2.376518	0	0	0
	180	pv	1.481051	23.231529	-11.986667	0	0	0
	181	pv	1.481051	23.231529	2.376518	0	0	0
	182	pv	19.360725	2.58586	-11.986667	0	0	0
	183	pv	19.360725	2.58586	2.376518	0	0	0
	184	pv	16.380779	7.747277	-11.986667	0	0	0
	185	pv	16.380779	7.747277	2.376518	0	0	0
	186	pv	13.400833	12.908695	-11.986667	0	0	0
	187	pv	13.400833	12.908695	2.376518	0	0	0
	188	pv	10.420888	18.070112	-11.986667	0	0	0
	189	pv	10.420888	18.070112	2.376518	0	0	0
	190	pv	7.440942	23.231529	-11.986667	0	0	0
	191	pv	7.440942	23.231529	2.376518	0	0	0
	192	pv	19.360725	12.908695	-11.986667	0	0	0
	193	pv	19.360725	12.908695	2.376518	0	0	0
	194	pv	16.380781	18.070112	-11.986667	0	0	0
	195	pv	16.380781	18.070112	2.376518	0	0	0
	196	pv	13.400834	23.231529	-11.986667	0	0	0
	197	pv	13.400834	23.231529	2.376518	0	0	0
	198	pv	19.360727	23.231529	-11.986667	0	0	0
	199	pv	19.360727	23.231529	2.376518	0	0	0
	200	pv	-8.939837	-20.655972	-11.986667	0	0	0
	201	pv	-8.939837	-20.655972	2.376518	0	0	0
	202	pv	-2.979945	-20.655972	-11.986667	0	0	0
	203	pv	-2.979945	-20.655972	2.376518	0	0	0
	204	pv	-5.959891	-15.494555	-11.986667	0	0	0
	205	pv	-5.959891	-15.494555	2.376518	0	0	0
	206	pv	-8.939837	-10.333138	-11.986667	0	0	0
	207	pv	-8.939837	-10.333138	2.376518	0	0	0
	208	pv	2.979946	-20.655972	-11.986667	0	0	0
	209	pv	2.979946	-20.655972	2.376518	0	0	0
	210	pv	0.0	-15.494555	-11.986667	0	0	0
	211	pv	0.0	-15.494555	2.376518	0	0	0
	212	pv	-2.979946	-10.333138	-11.986667	0	0	0
	213	pv	-2.979946	-10.333138	2.376518	0	0	0
	214	pv	-5.959892	-5.17172	-11.986667	0	0	0
	215	pv	-5.959892	-5.17172	2.376518	0	0	0
	216	pv	-8.939837	-0.010302	-11.986667	0	0	0
	217	pv	-8.939837	-0.010302	2.376518	0	0	0
	218	pv	8.939837	-20.655972	-11.986667	0	0	0
	219	pv	8.939837	-20.655972	2.376518	0	0	0
	220	pv	5.959892	-15.494555	-11.986667	0	0	0
	221	pv	5.959892	-15.494555	2.376518	0	0	0
	222	pv	2.979946	-10.333138	-11.986667	0	0	0
	223	pv	2.979946	-10.333138	2.376518	0	0	0
	224	pv	0.0	-5.17172	-11.986667	0	0	0
	225	pv	0.0	-5.17172	2.376518	0	0	0
	226	pv	-2.979946	-0.010302	-11.986667	0	0	0
	227	pv	-2.979946	-0.010302	2.376518	0	0	0
	228	pv	-5.959892	5.151115	-11.986667	0	0	0
	229	pv	-5.959892	5.151115	2.376518	0	0	0
	230	pv	-8.939837	10.312532	-11.986667	0	0	0
	231	pv	-8.939837	10.312532	2.376518	0	0	0
	232	pv	14.89973	-20.655972	-11.986667	0	0	0
	233	pv	14.89973	-20.655972	2.376518	0	0	0
	234	pv	11.919784	-15.494555	-11.986667	0	0	0
	235	pv	11.919784	-15.494555	2.376518	0	0	0
	236	pv	8.939837	-10.333138	-11.986667	0	0	0
	237	pv	8.939837	-10.333138	2.376518	0	0	0
	238	pv	5.959892	-5.17172	-11.986667	0	0	0
	239	pv	5.959892	-5.17172	2.376518	0	0	0
	240	pv	2.979946	-0.010302	-11.986667	0	0	0
	241	pv	2.979946	-0.010302	2.376518	0	0	0
	242	pv	0.0	5.151115	-11.986667	0	0	0
	243	pv	0.0	5.151115	2.376518	0	0	0
	244	pv	-2.979946	10.312532	-11.986667	0	0	0
	245	pv	-2.979946	10.312532	2.376518	0	0	0
	246	pv	-5.959892	15.47395	-11.986667	0	0	0
	247	pv	-5.959892	15.47395	2.376518	0	0	0
	248	pv	-8.939837	20.635368	-11.986667	0	0	0
	249	pv	-8.939837	20.635368	2.376518	0	0	0
	250	pv	17.879675	-15.494555	-11.986667	0	0	0
	251	pv	17.879675	-15.494555	2.376518	0	0	0
	252	pv	14.89973	-10.333138	-11.986667	0	0	0
	253	pv	14.89973	-10.333138	2.376518	0	0	0
	254	pv	11.919784	-5.17172	-11.986667	0	0	0
	255	pv	11.919784	-5.17172	2.376518	0	0	0
	256	pv	8.939837	-0.010302	-11.986667	0	0	0
	257	pv	8.939837	-0.010302	2.376518	0	0	0
	258	pv	5.959892	5.151115	-11.986667	0	0	0
	259	pv	5.959892	5.151115	2.376518	0	0	0
	260	pv	2.979946	10.312532	-11.986667	0	0	0
	261	pv	2.979946	10.312532	2.376518	0	0	0
	262	pv	0.0	15.47395	-11.986667	0	0	0
	263	pv	0.0	15.47395	2.376518	0	0	0
	264	pv	-2.979946	20.635368	-11.986667	0	0	0
	265	pv	-2.979946	20.635368	2.376518	0	0	0
	266	pv	-5.959892	25.796785	-11.986667	0	0	0
	267	pv	-5.959892	25.796785	2.376518	0	0	0
	268	pv	17.879675	-5.17172	-11.986667	0	0	0
	269	pv	17.879675	-5.17172	2.376518	0	0	0
	270	pv	14.89973	-0.010302	-11.986667	0	0	0
	271	pv	14.89973	-0.010302	2.376518	0	0	0
	272	pv	11.919784	5.151115	-11.986667	0	0	0
	273	pv	11.919784	5.151115	2.376518	0	0	0
	274	pv	8.939837	10.312532	-11.986667	0	0	0
	275	pv	8.939837	10.312532	2.376518	0	0	0
	276	pv	5.959892	15.47395	-11.986667	0	0	0
	277	pv	5.959892	15.47395	2.376518	0	0	0
	278	pv	2.979946	20.635368	-11.986667	0	0	0
	279	pv	2.979946	20.635368	2.376518	0	0	0
	280	pv	0.0	25.796785	-11.986667	0	0	0
	281	pv	0.0	25.796785	2.376518	0	0	0
	282	pv	17.879675	5.151115	-11.986667	0	0	0
	283	pv	17.879675	5.151115	2.376518	0	0	0
	284	pv	14.899729	10.312532	-11.986667	0	0	0
	285	pv	14.899729	10.312532	2.376518	0	0	0
	286	pv	11.919783	15.47395	-11.986667	0	0	0
	287	pv	11.919783	15.47395	2.376518	0	0	0
	288	pv	8.939837	20.635368	-11.986667	0	0	0
	289	pv	8.939837	20.635368	2.376518	0	0	0
	290	pv	5.959891	25.796785	-11.986667	0	0	0
	291	pv	5.959891	25.796785	2.376518	0	0	0
	292	pv	17.879675	15.47395	-11.986667	0	0	0
	293	pv	17.879675	15.47395	2.376518	0	0	0
	294	pv	14.89973	20.635368	-11.986667	0	0	0
	295	pv	14.89973	20.635368	2.376518	0	0	0
	296	pv	11.919784	25.796785	-11.986667	0	0	0
	297	pv	11.919784	25.796785	2.376518	0	0	0
	298	pv	17.879677	25.796785	-11.986667	0	0	0
	299	pv	17.879677	25.796785	2.376518	0	0	0
	300	pv	-8.939835	-24.038738	-2.404929	0	0	0
	301	pv	-8.939835	-24.038738	11.958256	0	0	0
	302	pv	-2.979942	-24.038738	-2.404929	0	0	0
	303	pv	-2.979942	-24.038738	11.958256	0	0	0
	304	pv	-5.959888	-18.877321	-2.404929	0	0	0
	305	pv	-5.959888	-18.877321	11.958256	0	0	0
	306	pv	-8.939835	-13.715905	-2.404929	0	0	0
	307	pv	-8.939835	-13.715905	11.958256	0	0	0
	308	pv	2.979949	-24.038738	-2.404929	0	0	0
	309	pv	2.979949	-24.038738	11.958256	0	0	0
	310	pv	3e-06	-18.877321	-2.404929	0	0	0
	311	pv	3e-06	-18.877321	11.958256	0	0	0
	312	pv	-2.979943	-13.715905	-2.404929	0	0	0
	313	pv	-2.979943	-13.715905	11.958256	0	0	0
	314	pv	-5.959889	-8.554487	-2.404929	0	0	0
	315	pv	-5.959889	-8.554487	11.958256	0	0	0
	316	pv	-8.939835	-3.39307	-2.404929	0	0	0
	317	pv	-8.939835	-3.39307	11.958256	0	0	0
	318	pv	8.93984	-24.038738	-2.404929	0	0	0
	319	pv	8.93984	-24.038738	11.958256	0	0	0
	320	pv	5.959895	-18.877321	-2.404929	0	0	0
	321	pv	5.959895	-18.877321	11.958256	0	0	0
	322	pv	2.979949	-13.715905	-2.404929	0	0	0
	323	pv	2.979949	-13.715905	11.958256	0	0	0
	324	pv	3e-06	-8.554487	-2.404929	0	0	0
	325	pv	3e-06	-8.554487	11.958256	0	0	0
	326	pv	-2.979943	-3.39307	-2.404929	0	0	0
	327	pv	-2.979943	-3.39307	11.958256	0	0	0
	328	pv	-5.959889	1.768348	-2.404929	0	0	0
	329	pv	-5.959889	1.768348	11.958256	0	0	0
	330	pv	-8.939835	6.929766	-2.404929	0	0	0
	331	pv	-8.939835	6.929766	11.958256	0	0	0
	332	pv	14.899733	-24.038738	-2.404929	0	0	0
	333	pv	14.899733	-24.038738	11.958256	0	0	0
	334	pv	11.919786	-18.877321	-2.404929	0	0	0
	335	pv	11.919786	-18.877321	11.958256	0	0	0
	336	pv	8.93984	-13.715905	-2.404929	0	0	0
	337	pv	8.93984	-13.715905	11.958256	0	0	0
	338	pv	5.959895	-8.554487	-2.404929	0	0	0
	339	pv	5.959895	-8.554487	11.958256	0	0	0
	340	pv	2.979949	-3.39307	-2.404929	0	0	0
	341	pv	2.979949	-3.39307	11.958256	0	0	0
	342	pv	3e-06	1.768348	-2.404929	0	0	0
	343	pv	3e-06	1.768348	11.958256	0	0	0
	344	pv	-2.979943	6.929766	-2.404929	0	0	0
	345	pv	-2.979943	6.929766	11.958256	0	0	0
	346	pv	-5.959889	12.091183	-2.404929	0	0	0
	347	pv	-5.959889	12.091183	11.958256	0	0	0
	348	pv	-8.939835	17.252602	-2.404929	0	0	0
	349	pv	-8.939835	17.252602	11.958256	0	0	0
	350	pv	17.879679	-18.877321	-2.404929	0	0	0
	351	pv	17.879679	-18.877321	11.958256	0	0	0
	352	pv	14.899733	-13.715905	-2.404929	0	0	0
	353	pv	14.899733	-13.715905	11.958256	0	0	0
	354	pv	11.919786	-8.554487	-2.404929	0	0	0
	355	pv	11.919786	-8.554487	11.958256	0	0	0
	356	pv	8.93984	-3.39307	-2.404929	0	0	0
	357	pv	8.93984	-3.39307	11.958256	0	0	0
	358	pv	5.959895	1.768348	-2.404929	0	0	0
	359	pv	5.959895	1.768348	11.958256	0	0	0
	360	pv	2.979949	6.929766	-2.404929	0	0	0
	361	pv	2.979949	6.929766	11.958256	0	0	0
	362	pv	3e-06	12.091183	-2.404929	0	0	0
	363	pv	3e-06	12.091183	11.958256	0	0	0
	364	pv	-2.979943	17.252602	-2.404929	0	0	0
	365	pv	-2.979943	17.252602	11.958256	0	0	0
	366	pv	-5.959889	22.414019	-2.404929	0	0	0
	367	pv	-5.959889	22.414019	11.958256	0	0	0
	368	pv	17.879679	-8.554487	-2.404929	0	0	0
	369	pv	17.879679	-8.554487	11.958256	0	0	0
	370	pv	14.899733	-3.39307	-2.404929	0	0	0
	371	pv	14.899733	-3.39307	11.958256	0	0	0
	372	pv	11.919786	1.768348	-2.404929	0	0	0
	373	pv	11.919786	1.768348	11.958256	0	0	0
	374	pv	8.93984	6.929766	-2.404929	0	0	0
	375	pv	8.93984	6.929766	11.958256	0	0	0
	376	pv	5.959895	12.091183	-2.404929	0	0	0
	377	pv	5.959895	12.091183	11.958256	0	0	0
	378	pv	2.979949	17.252602	-2.404929	0	0	0
	379	pv	2.979949	17.252602	11.958256	0	0	0
	380	pv	3e-06	22.414019	-2.404929	0	0	0
	381	pv	3e-06	22.414019	11.958256	0	0	0
	382	pv	17.879679	1.768348	-2.404929	0	0	0
	383	pv	17.879679	1.768348	11.958256	0	0	0
	384	pv	14.899732	6.929766	-2.404929	0	0	0
	385	pv	14.899732	6.929766	11.958256	0	0	0
	386	pv	11.919785	12.091183	-2.404929	0	0	0
	387	pv	11.919785	12.091183	11.958256	0	0	0
	388	pv	8.93984	17.252602	-2.404929	0	0	0
	389	pv	8.93984	17.252602	11.958256	0	0	0
	390	pv	5.959894	22.414019	-2.404929	0	0	0
	391	pv	5.959894	22.414019	11.958256	0	0	0
	392	pv	17.879679	12.091183	-2.404929	0	0	0
	393	pv	17.879679	12.091183	11.958256	0	0	0
	394	pv	14.899733	17.252602	-2.404929	0	0	0
	395	pv	14.899733	17.252602	11.958256	0	0	0
	396	pv	11.919786	22.414019	-2.404929	0	0	0
	397	pv	11.919786	22.414019	11.958256	0	0	0
	398	pv	17.879681	22.414019	-2.404929	0	0	0
	399	pv	17.879681	22.414019	11.958256	0	0	0
	400	pv	-7.491327	-21.52984	-2.404929	0	0	0
	401	pv	-7.491327	-21.52984	11.958256	0	0	0
	402	pv	-1.531435	-21.52984	-2.404929	0	0	0
	403	pv	-1.531435	-21.52984	11.958256	0	0	0
	404	pv	-4.511381	-16.368423	-2.404929	0	0	0
	405	pv	-4.511381	-16.368423	11.958256	0	0	0
	406	pv	-7.491327	-11.207006	-2.404929	0	0	0
	407	pv	-7.491327	-11.207006	11.958256	0	0	0
	408	pv	4.428456	-21.52984	-2.404929	0	0	0
	409	pv	4.428456	-21.52984	11.958256	0	0	0
	410	pv	1.44851	-16.368423	-2.404929	0	0	0
	411	pv	1.44851	-16.368423	11.958256	0	0	0
	412	pv	-1.531436	-11.207006	-2.404929	0	0	0
	413	pv	-1.531436	-11.207006	11.958256	0	0	0
	414	pv	-4.511382	-6.045589	-2.404929	0	0	0
	415	pv	-4.511382	-6.045589	11.958256	0	0	0
	416	pv	-7.491327	-0.884171	-2.404929	0	0	0
	417	pv	-7.491327	-0.884171	11.958256	0	0	0
	418	pv	10.388348	-21.52984	-2.404929	0	0	0
	419	pv	10.388348	-21.52984	11.958256	0	0	0
	420	pv	7.408401	-16.368423	-2.404929	0	0	0
	421	pv	7.408401	-16.368423	11.958256	0	0	0
	422	pv	4.428456	-11.207006	-2.404929	0	0	0
	423	pv	4.428456	-11.207006	11.958256	0	0	0
	424	pv	1.44851	-6.045589	-2.404929	0	0	0
	425	pv	1.44851	-6.045589	11.958256	0	0	0
	426	pv	-1.531436	-0.884171	-2.404929	0	0	0
	427	pv	-1.531436	-0.884171	11.958256	0	0	0
	428	pv	-4.511382	4.277246	-2.404929	0	0	0
	429	pv	-4.511382	4.277246	11.958256	0	0	0
	430	pv	-7.491327	9.438663	-2.404929	0	0	0
	431	pv	-7.491327	9.438663	11.958256	0	0	0
	432	pv	16.34824	-21.52984	-2.404929	0	0	0
	433	pv	16.34824	-21.52984	11.958256	0	0	0
	434	pv	13.368294	-16.368423	-2.404929	0	0	0
	435	pv	13.368294	-16.368423	11.958256	0	0	0
	436	pv	10.388348	-11.207006	-2.404929	0	0	0
	437	pv	10.388348	-11.207006	11.958256	0	0	0
	438	pv	7.408401	-6.045589	-2.404929	0	0	0
	439	pv	7.408401	-6.045589	11.958256	0	0	0
	440	pv	4.428456	-0.884171	-2.404929	0	0	0
	441	pv	4.428456	-0.884171	11.958256	0	0	0
	442	pv	1.44851	4.277246	-2.404929	0	0	0
	443	pv	1.44851	4.277246	11.958256	0	0	0
	444	pv	-1.531436	9.438663	-2.404929	0	0	0
	445	pv	-1.531436	9.438663	11.958256	0	0	0
	446	pv	-4.511382	14.60008	-2.404929	0	0	0
	447	pv	-4.511382	14.60008	11.958256	0	0	0
	448	pv	-7.491327	19.761499	-2.404929	0	0	0
	449	pv	-7.491327	19.761499	11.958256	0	0	0
	450	pv	19.328184	-16.368423	-2.404929	0	0	0
	451	pv	19.328184	-16.368423	11.958256	0	0	0
	452	pv	16.34824	-11.207006	-2.404929	0	0	0
	453	pv	16.34824	-11.207006	11.958256	0	0	0
	454	pv	13.368294	-6.045589	-2.404929	0	0	0
	455	pv	13.368294	-6.045589	11.958256	0	0	0
	456	pv	10.388348	-0.884171	-2.404929	0	0	0
	457	pv	10.388348	-0.884171	11.958256	0	0	0
	458	pv	7.408401	4.277246	-2.404929	0	0	0
	459	pv	7.408401	4.277246	11.958256	0	0	0
	460	pv	4.428456	9.438663	-2.404929	0	0	0
	461	pv	4.428456	9.438663	11.958256	0	0	0
	462	pv	1.44851	14.60008	-2.404929	0	0	0
	463	pv	1.44851	14.60008	11.958256	0	0	0
	464	pv	-1.531436	19.761499	-2.404929	0	0	0
	465	pv	-1.531436	19.761499	11.958256	0	0	0
	466	pv	-4.511382	24.922916	-2.404929	0	0	0
	467	pv	-4.511382	24.922916	11.958256	0	0	0
	468	pv	19.328184	-6.045589	-2.404929	0	0	0
	469	pv	19.328184	-6.045589	11.958256	0	0	0
	470	pv	16.34824	-0.884171	-2.404929	0	0	0
	471	pv	16.34824	-0.884171	11.958256	0	0	0
	472	pv	13.368294	4.277246	-2.404929	0	0	0
	473	pv	13.368294	4.277246	11.958256	0	0	0
	474	pv	10.388348	9.438663	-2.404929	0	0	0
	475	pv	10.388348	9.438663	11.958256	0	0	0
	476	pv	7.408401	14.60008	-2.404929	0	0	0
	477	pv	7.408401	14.60008	11.958256	0	0	0
	478	pv	4.428456	19.761499	-2.404929	0	0	0
	479	pv	4.428456	19.761499	11.958256	0	0	0
	480	pv	1.44851	24.922916	-2.404929	0	0	0
	481	pv	1.44851	24.922916	11.958256	0	0	0
	482	pv	19.328184	4.277246	-2.404929	0	0	0
	483	pv	19.328184	4.277246	11.958256	0	0	0
	484	pv	16.348238	9.438663	-2.404929	0	0	0
	485	pv	16.348238	9.438663	11.958256	0	0	0
	486	pv	13.368293	14.60008	-2.404929	0	0	0
	487	pv	13.368293	14.60008	11.958256	0	0	0
	488	pv	10.388348	19.761499	-2.404929	0	0	0
	489	pv	10.388348	19.761499	11.958256	0	0	0
	490	pv	7.408401	24.922916	-2.404929	0	0	0
	491	pv	7.408401	24.922916	11.958256	0	0	0
	492	pv	19.328184	14.60008	-2.404929	0	0	0
	493	pv	19.328184	14.60008	11.958256	0	0	0
	494	pv	16.34824	19.761499	-2.404929	0	0	0
	495	pv	16.34824	19.761499	11.958256	0	0	0
	496	pv	13.368294	24.922916	-2.404929	0	0	0
	497	pv	13.368294	24.922916	11.958256	0	0	0
	498	pv	19.328186	24.922916	-2.404929	0	0	0
	499	pv	19.328186	24.922916	11.958256	0	0	0
	500	pv	-4.428458	-21.529846	-2.404929	0	0	0
	501	pv	-4.428458	-21.529846	11.958256	0	0	0
	502	pv	-7.408404	-16.368429	-2.404929	0	0	0
	503	pv	-7.408404	-16.368429	11.958256	0	0	0
	504	pv	1.531433	-21.529846	-2.404929	0	0	0
	505	pv	1.531433	-21.529846	11.958256	0	0	0
	506	pv	-1.448513	-16.368429	-2.404929	0	0	0
	507	pv	-1.448513	-16.368429	11.958256	0	0	0
	508	pv	-4.428459	-11.207012	-2.404929	0	0	0
	509	pv	-4.428459	-11.207012	11.958256	0	0	0
	510	pv	-7.408405	-6.045594	-2.404929	0	0	0
	511	pv	-7.408405	-6.045594	11.958256	0	0	0
	512	pv	7.491324	-21.529846	-2.404929	0	0	0
	513	pv	7.491324	-21.529846	11.958256	0	0	0
	514	pv	4.511379	-16.368429	-2.404929	0	0	0
	515	pv	4.511379	-16.368429	11.958256	0	0	0
	516	pv	1.531433	-11.207012	-2.404929	0	0	0
	517	pv	1.531433	-11.207012	11.958256	0	0	0
	518	pv	-1.448513	-6.045594	-2.404929	0	0	0
	519	pv	-1.448513	-6.045594	11.958256	0	0	0
	520	pv	-4.428459	-0.884177	-2.404929	0	0	0
	521	pv	-4.428459	-0.884177	11.958256	0	0	0
	522	pv	-7.408405	4.277241	-2.404929	0	0	0
	523	pv	-7.408405	4.277241	11.958256	0	0	0
	524	pv	13.451217	-21.529846	-2.404929	0	0	0
	525	pv	13.451217	-21.529846	11.958256	0	0	0
	526	pv	10.471271	-16.368429	-2.404929	0	0	0
	527	pv	10.471271	-16.368429	11.958256	0	0	0
	528	pv	7.491324	-11.207012	-2.404929	0	0	0
	529	pv	7.491324	-11.207012	11.958256	0	0	0
	530	pv	4.511379	-6.045594	-2.404929	0	0	0
	531	pv	4.511379	-6.045594	11.958256	0	0	0
	532	pv	1.531433	-0.884177	-2.404929	0	0	0
	533	pv	1.531433	-0.884177	11.958256	0	0	0
	534	pv	-1.448513	4.277241	-2.404929	0	0	0
	535	pv	-1.448513	4.277241	11.958256	0	0	0
	536	pv	-4.428459	9.438658	-2.404929	0	0	0
	537	pv	-4.428459	9.438658	11.958256	0	0	0
	538	pv	-7.408405	14.600076	-2.404929	0	0	0
	539	pv	-7.408405	14.600076	11.958256	0	0	0
	540	pv	19.411108	-21.529846	-2.404929	0	0	0
	541	pv	19.411108	-21.529846	11.958256	0	0	0
	542	pv	16.431162	-16.368429	-2.404929	0	0	0
	543	pv	16.431162	-16.368429	11.958256	0	0	0
	544	pv	13.451217	-11.207012	-2.404929	0	0	0
	545	pv	13.451217	-11.207012	11.958256	0	0	0
	546	pv	10.471271	-6.045594	-2.404929	0	0	0
	547	pv	10.471271	-6.045594	11.958256	0	0	0
	548	pv	7.491324	-0.884177	-2.404929	0	0	0
	549	pv	7.491324	-0.884177	11.958256	0	0	0
	550	pv	4.511379	4.277241	-2.404929	0	0	0
	551	pv	4.511379	4.277241	11.958256	0	0	0
	552	pv	1.531433	9.438658	-2.404929	0	0	0
	553	pv	1.531433	9.438658	11.958256	0	0	0
	554	pv	-1.448513	14.600076	-2.404929	0	0	0
	555	pv	-1.448513	14.600076	11.958256	0	0	0
	556	pv	-4.428459	19.761494	-2.404929	0	0	0
	557	pv	-4.428459	19.761494	11.958256	0	0	0
	558	pv	-7.408405	24.922911	-2.404929	0	0	0
	559	pv	-7.408405	24.922911	11.958256	0	0	0
	560	pv	19.411108	-11.207012	-2.404929	0	0	0
	561	pv	19.411108	-11.207012	11.958256	0	0	0
	562	pv	16.431162	-6.045594	-2.404929	0	0	0
	563	pv	16.431162	-6.045594	11.958256	0	0	0
	564	pv	13.451217	-0.884177	-2.404929	0	0	0
	565	pv	13.451217	-0.884177	11.958256	0	0	0
	566	pv	10.471271	4.277241	-2.404929	0	0	0
	567	pv	10.471271	4.277241	11.958256	0	0	0
	568	pv	7.491324	9.438658	-2.404929	0	0	0
	569	pv	7.491324	9.438658	11.958256	0	0	0
	570	pv	4.511379	14.600076	-2.404929	0	0	0
	571	pv	4.511379	14.600076	11.958256	0	0	0
	572	pv	1.531433	19.761494	-2.404929	0	0	0
	573	pv	1.531433	19.761494	11.958256	0	0	0
	574	pv	-1.448513	24.922911	-2.404929	0	0	0
	575	pv	-1.448513	24.922911	11.958256	0	0	0
	576	pv	19.411108	-0.884177	-2.404929	0	0	0
	577	pv	19.411108	-0.884177	11.958256	0	0	0
	578	pv	16.431162	4.277241	-2.404929	0	0	0
	579	pv	16.431162	4.277241	11.958256	0	0	0
	580	pv	13.451216	9.438658	-2.404929	0	0	0
	581	pv	13.451216	9.438658	11.958256	0	0	0
	582	pv	10.47127	14.600076	-2.404929	0	0	0
	583	pv	10.47127	14.600076	11.958256	0	0	0
	584	pv	7.491324	19.761494	-2.404929	0	0	0
	585	pv	7.491324	19.761494	11.958256	0	0	0
	586	pv	4.511378	24.922911	-2.404929	0	0	0
	587	pv	4.511378	24.922911	11.958256	0	0	0
	588	pv	19.411108	9.438658	-2.404929	0	0	0
	589	pv	19.411108	9.438658	11.958256	0	0	0
	590	pv	16.431162	14.600076	-2.404929	0	0	0
	591	pv	16.431162	14.600076	11.958256	0	0	0
	592	pv	13.451217	19.761494	-2.404929	0	0	0
	593	pv	13.451217	19.761494	11.958256	0	0	0
	594	pv	10.471271	24.922911	-2.404929	0	0	0
	595	pv	10.471271	24.922911	11.958256	0	0	0
	596	pv	19.411108	19.761494	-2.404929	0	0	0
	597	pv	19.411108	19.761494	11.958256	0	0	0
	598	pv	16.431164	24.922911	-2.404929	0	0	0
	599	pv	16.431164	24.922911	11.958256	0	0	0
	600	pv	-7.4951	-24.972971	-7.172098	0	0	0
	601	pv	-7.4951	-24.972971	7.191087	0	0	0
	602	pv	-1.535208	-24.972971	-7.172098	0	0	0
	603	pv	-1.535208	-24.972971	7.191087	0	0	0
	604	pv	-4.515154	-19.811554	-7.172098	0	0	0
	605	pv	-4.515154	-19.811554	7.191087	0	0	0
	606	pv	-7.4951	-14.650137	-7.172098	0	0	0
	607	pv	-7.4951	-14.650137	7.191087	0	0	0
	608	pv	4.424684	-24.972971	-7.172098	0	0	0
	609	pv	4.424684	-24.972971	7.191087	0	0	0
	610	pv	1.444737	-19.811554	-7.172098	0	0	0
	611	pv	1.444737	-19.811554	7.191087	0	0	0
	612	pv	-1.535208	-14.650137	-7.172098	0	0	0
	613	pv	-1.535208	-14.650137	7.191087	0	0	0
	614	pv	-4.515154	-9.488719	-7.172098	0	0	0
	615	pv	-4.515154	-9.488719	7.191087	0	0	0
	616	pv	-7.4951	-4.327302	-7.172098	0	0	0
	617	pv	-7.4951	-4.327302	7.191087	0	0	0
	618	pv	10.384575	-24.972971	-7.172098	0	0	0
	619	pv	10.384575	-24.972971	7.191087	0	0	0
	620	pv	7.404629	-19.811554	-7.172098	0	0	0
	621	pv	7.404629	-19.811554	7.191087	0	0	0
	622	pv	4.424684	-14.650137	-7.172098	0	0	0
	623	pv	4.424684	-14.650137	7.191087	0	0	0
	624	pv	1.444737	-9.488719	-7.172098	0	0	0
	625	pv	1.444737	-9.488719	7.191087	0	0	0
	626	pv	-1.535208	-4.327302	-7.172098	0	0	0
	627	pv	-1.535208	-4.327302	7.191087	0	0	0
	628	pv	-4.515154	0.834116	-7.172098	0	0	0
	629	pv	-4.515154	0.834116	7.191087	0	0	0
	630	pv	-7.4951	5.995533	-7.172098	0	0	0
	631	pv	-7.4951	5.995533	7.191087	0	0	0
	632	pv	16.344467	-24.972971	-7.172098	0	0	0
	633	pv	16.344467	-24.972971	7.191087	0	0	0
	634	pv	13.364521	-19.811554	-7.172098	0	0	0
	635	pv	13.364521	-19.811554	7.191087	0	0	0
	636	pv	10.384575	-14.650137	-7.172098	0	0	0
	637	pv	10.384575	-14.650137	7.191087	0	0	0
	638	pv	7.404629	-9.488719	-7.172098	0	0	0
	639	pv	7.404629	-9.488719	7.191087	0	0	0
	640	pv	4.424684	-4.327302	-7.172098	0	0	0
	641	pv	4.424684	-4.327302	7.191087	0	0	0
	642	pv	1.444737	0.834116	-7.172098	0	0	0
	643	pv	1.444737	0.834116	7.191087	0	0	0
	644	pv	-1.535208	5.995533	-7.172098	0	0	0
	645	pv	-1.535208	5.995533	7.191087	0	0	0
	646	pv	-4.515154	11.156951	-7.172098	0	0	0
	647	pv	-4.515154	11.156951	7.191087	0	0	0
	648	pv	-7.4951	16.318369	-7.172098	0	0	0
	649	pv	-7.4951	16.318369	7.191087	0	0	0
	650	pv	19.324413	-19.811554	-7.172098	0	0	0
	651	pv	19.324413	-19.811554	7.191087	0	0	0
	652	pv	16.344467	-14.650137	-7.172098	0	0	0
	653	pv	16.344467	-14.650137	7.191087	0	0	0
	654	pv	13.364521	-9.488719	-7.172098	0	0	0
	655	pv	13.364521	-9.488719	7.191087	0	0	0
	656	pv	10.384575	-4.327302	-7.172098	0	0	0
	657	pv	10.384575	-4.327302	7.191087	0	0	0
	658	pv	7.404629	0.834116	-7.172098	0	0	0
	659	pv	7.404629	0.834116	7.191087	0	0	0
	660	pv	4.424684	5.995533	-7.172098	0	0	0
	661	pv	4.424684	5.995533	7.191087	0	0	0
	662	pv	1.444737	11.156951	-7.172098	0	0	0
	663	pv	1.444737	11.156951	7.191087	0	0	0
	664	pv	-1.535208	16.318369	-7.172098	0	0	0
	665	pv	-1.535208	16.318369	7.191087	0	0	0
	666	pv	-4.515154	21.479786	-7.172098	0	0	0