<OpenMD version=2>
  <MetaData>

molecule{
  name = "Mg";

  atom[0]{
    type="Mg_FQ";
    position( 0.0, 0.0, 0.0 );
  }
}

molecule{
  name = "O";

  atom[0]{
    type="O_FQ";
    position( 0.0, 0.0, 0.0 );
  }
}

component{
  type = "Mg";
  nMol = 864;
}
component{
  type = "O";
  nMol = 864;
}
flucQ {
  propagator = "Damped";
  targetTemp = 1;
  dragCoefficient = 1;
}
forceField = "DR-EAM";
forceFieldFileName = "DR-EAM.v2.frc";

outputFluctuatingCharges = true;
outputElectricField = true;
outputDensity = true;

ensemble = NVT;
dt = 0.1;
runTime = 1;
sampleTime = 1;
statusTime = 1;
targetTemp = 10;
tauThermostat = 100;

cutoffMethod = "shifted_force";
cutoffRadius = 12;
electrostaticScreeningMethod = "DAMPED";
dampingAlpha = 0.105;

statFileFormat = "TIME|TOTAL_ENERGY|POTENTIAL_ENERGY|KINETIC_ENERGY|TEMPERATURE|PRESSURE|VOLUME|CONSERVED_QUANTITY|SYSTEM_DIPOLE";

  </MetaData>
  <Snapshot>
    <FrameData>
        Time: 0
        Hmat: {{ 25.272, 0, 0 }, { 0, 25.272, 0 }, { 0, 0, 25.272 }}
  Thermostat: 0 , 0
    Barostat: {{ 0, 0, 0 }, { 0, 0, 0 }, { 0, 0, 0 }}
    </FrameData>
    <StuntDoubles>
         0      pv             -5.265             -5.265             -5.265  0.000000e+00  0.000000e+00  0.000000e+00
         1      pv             -5.265             -5.265              7.371  0.000000e+00  0.000000e+00  0.000000e+00
         2      pv             -5.265              7.371             -5.265  0.000000e+00  0.000000e+00  0.000000e+00
         3      pv             -5.265              7.371              7.371  0.000000e+00  0.000000e+00  0.000000e+00
         4      pv              7.371             -5.265             -5.265  0.000000e+00  0.000000e+00  0.000000e+00
         5      pv              7.371             -5.265              7.371  0.000000e+00  0.000000e+00  0.000000e+00
         6      pv              7.371              7.371             -5.265  0.000000e+00  0.000000e+00  0.000000e+00
         7      pv              7.371              7.371              7.371  0.000000e+00  0.000000e+00  0.000000e+00
         8      pv             -5.265             -3.159             -3.159  0.000000e+00  0.000000e+00  0.000000e+00
         9      pv             -5.265             -3.159              9.477  0.000000e+00  0.000000e+00  0.000000e+00
        10      pv             -5.265              9.477             -3.159  0.000000e+00  0.000000e+00  0.000000e+00
        11      pv             -5.265              9.477              9.477  0.000000e+00  0.000000e+00  0.000000e+00
        12      pv              7.371             -3.159             -3.159  0.000000e+00  0.000000e+00  0.000000e+00
        13      pv              7.371             -3.159              9.477  0.000000e+00  0.000000e+00  0.000000e+00
        14      pv              7.371              9.477             -3.159  0.000000e+00  0.000000e+00  0.000000e+00
        15      pv              7.371              9.477              9.477  0.000000e+00  0.000000e+00  0.000000e+00
        16      pv             -3.159             -5.265             -3.159  0.000000e+00  0.000000e+00  0.000000e+00
        17      pv             -3.159             -5.265              9.477  0.000000e+00  0.000000e+00  0.000000e+00
        18      pv             -3.159              7.371             -3.159  0.000000e+00  0.000000e+00  0.000000e+00
        19      pv             -3.159              7.371              9.477  0.000000e+00  0.000000e+00  0.000000e+00
        20      pv              9.477             -5.265             -3.159  0.000000e+00  0.000000e+00  0.000000e+00
        21      pv              9.477             -5.265              9.477  0.000000e+00  0.000000e+00  0.000000e+00
        22      pv              9.477              7.371             -3.159  0.000000e+00  0.000000e+00  0.000000e+00
        23      pv              9.477              7.371              9.477  0.000000e+00  0.000000e+00  0.000000e+00
        24      pv             -3.159             -3.159             -5.265  0.000000e+00  0.000000e+00  0.000000e+00
        25      pv             -3.159             -3.159              7.371  0.000000e+00  0.000000e+00  0.000000e+00
        26      pv             -3.159              9.477             -5.265  0.000000e+00  0.000000e+00  0.000000e+00
        27      pv             -3.159              9.477              7.371  0.000000e+00  0.000000e+00  0.000000e+00
        28      pv              9.477             -3.159             -5.265  0.000000e+00  0.000000e+00  0.000000e+00
        29      pv              9.477             -3.159              7.371  0.000000e+00  0.000000e+00  0.000000e+00
        30      pv              9.477              9.477             -5.265  0.000000e+00  0.000000e+00  0.000000e+00
        31      pv              9.477              9.477              7.371  0.000000e+00  0.000000e+00  0.000000e+00
        32      pv             -5.265             -5.265             -1.053  0.000000e+00  0.000000e+00  0.000000e+00
        33      pv             -5.265             -5.265             11.583  0.000000e+00  0.000000e+00  0.000000e+00
        34      pv             -5.265              7.371             -1.053  0.000000e+00  0.000000e+00  0.000000e+00
        35      pv             -5.265              7.371             11.583  0.000000e+00  0.000000e+00  0.000000e+00
        36      pv              7.371             -5.265             -1.053  0.000000e+00  0.000000e+00  0.000000e+00
        37      pv              7.371             -5.265             11.583  0.000000e+00  0.000000e+00  0.000000e+00
        38      pv              7.371              7.371             -1.053  0.000000e+00  0.000000e+00  0.000000e+00
        39      pv              7.371              7.371             11.583  0.000000e+00  0.000000e+00  0.000000e+00
        40      pv             -5.265             -3.159              1.053  0.000000e+00  0.000000e+00  0.000000e+00
        41      pv             -5.265             -3.159             13.689  0.000000e+00  0.000000e+00  0.000000e+00
        42      pv             -5.265              9.477              1.053  0.000000e+00  0.000000e+00  0.000000e+00
        43      pv             -5.265              9.477             13.689  0.000000e+00  0.000000e+00  0.000000e+00
        44      pv              7.371             -3.159              1.053  0.000000e+00  0.000000e+00  0.000000e+00
        45      pv              7.371             -3.159             13.689  0.000000e+00  0.000000e+00  0.000000e+00
        46      pv              7.371              9.477              1.053  0.000000e+00  0.000000e+00  0.000000e+00
        47      pv              7.371              9.477             13.689  0.000000e+00  0.000000e+00  0.000000e+00
        48      pv             -3.159             -5.265              1.053  0.000000e+00  0.000000e+00  0.000000e+00
        49      pv             -3.159             -5.265             13.689  0.000000e+00  0.000000e+00  0.000000e+00
        50      pv             -3.159              7.371              1.053  0.000000e+00  0.000000e+00  0.000000e+00
        51      pv             -3.159              7.371             13.689  0.000000e+00  0.000000e+00  0.000000e+00
        52      pv              9.477             -5.265              1.053  0.000000e+00  0.000000e+00  0.000000e+00
        53      pv              9.477             -5.265             13.689  0.000000e+00  0.000000e+00  0.000000e+00
        54      pv              9.477              7.371              1.053  0.000000e+00  0.000000e+00  0.000000e+00
        55      pv              9.477              7.371             13.689  0.000000e+00  0.000000e+00  0.000000e+00
        56      pv             -3.159             -3.159             -1.053  0.000000e+00  0.000000e+00  0.000000e+00
        57      pv             -3.159             -3.159             11.583  0.000000e+00  0.000000e+00  0.000000e+00
        58      pv             -3.159              9.477             -1.053  0.000000e+00  0.000000e+00  0.000000e+00
        59      pv             -3.159              9.477             11.583  0.000000e+00  0.000000e+00  0.000000e+00
        60      pv              9.477             -3.159             -1.053  0.000000e+00  0.000000e+00  0.000000e+00
        61      pv              9.477             -3.159             11.583  0.000000e+00  0.000000e+00  0.000000e+00
        62      pv              9.477              9.477             -1.053  0.000000e+00  0.000000e+00  0.000000e+00
        63      pv              9.477              9.477             11.583  0.000000e+00  0.000000e+00  0.000000e+00
        64      pv             -5.265             -5.265              3.159  0.000000e+00  0.000000e+00  0.000000e+00
        65      pv             -5.265             -5.265             15.795  0.000000e+00  0.000000e+00  0.000000e+00
        66      pv             -5.265              7.371              3.159  0.000000e+00  0.000000e+00  0.000000e+00
        67      pv             -5.265              7.371             15.795  0.000000e+00  0.000000e+00  0.000000e+00
        68      pv              7.371             -5.265              3.159  0.000000e+00  0.000000e+00  0.000000e+00
        69      pv              7.371             -5.265             15.795  0.000000e+00  0.000000e+00  0.000000e+00
        70      pv              7.371              7.371              3.159  0.000000e+00  0.000000e+00  0.000000e+00
        71      pv              7.371              7.371             15.795  0.000000e+00  0.000000e+00  0.000000e+00
        72      pv             -5.265             -3.159              5.265  0.000000e+00  0.000000e+00  0.000000e+00
        73      pv             -5.265             -3.159             17.901  0.000000e+00  0.000000e+00  0.000000e+00
        74      pv             -5.265              9.477              5.265  0.000000e+00  0.000000e+00  0.000000e+00
        75      pv             -5.265              9.477             17.901  0.000000e+00  0.000000e+00  0.000000e+00
        76      pv              7.371             -3.159              5.265  0.000000e+00  0.000000e+00  0.000000e+00
        77      pv              7.371             -3.159             17.901  0.000000e+00  0.000000e+00  0.000000e+00
        78      pv              7.371              9.477              5.265  0.000000e+00  0.000000e+00  0.000000e+00
        79      pv              7.371              9.477             17.901  0.000000e+00  0.000000e+00  0.000000e+00
        80      pv             -3.159             -5.265              5.265  0.000000e+00  0.000000e+00  0.000000e+00
        81      pv             -3.159             -5.265             17.901  0.000000e+00  0.000000e+00  0.000000e+00
        82      pv             -3.159              7.371              5.265  0.000000e+00  0.000000e+00  0.000000e+00
        83      pv             -3.159              7.371             17.901  0.000000e+00  0.000000e+00  0.000000e+00
        84      pv              9.477             -5.265              5.265  0.000000e+00  0.000000e+00  0.000000e+00
        85      pv              9.477             -5.265             17.901  0.000000e+00  0.000000e+00  0.000000e+00
        86      pv              9.477              7.371              5.265  0.000000e+00  0.000000e+00  0.000000e+00
        87      pv              9.477              7.371             17.901  0.000000e+00  0.000000e+00  0.000000e+00
        88      pv             -3.159             -3.159              3.159  0.000000e+00  0.000000e+00  0.000000e+00
        89      pv             -3.159             -3.159             15.795  0.000000e+00  0.000000e+00  0.000000e+00
        90      pv             -3.159              9.477              3.159  0.000000e+00  0.000000e+00  0.000000e+00
        91      pv             -3.159              9.477             15.795  0.000000e+00  0.000000e+00  0.000000e+00
        92      pv              9.477             -3.159              3.159  0.000000e+00  0.000000e+00  0.000000e+00
        93      pv              9.477             -3.159             15.795  0.000000e+00  0.000000e+00  0.000000e+00
        94      pv              9.477              9.477              3.159  0.000000e+00  0.000000e+00  0.000000e+00
        95      pv              9.477              9.477             15.795  0.000000e+00  0.000000e+00  0.000000e+00
        96      pv             -5.265             -1.053             -5.265  0.000000e+00  0.000000e+00  0.000000e+00
        97      pv             -5.265             -1.053              7.371  0.000000e+00  0.000000e+00  0.000000e+00
        98      pv             -5.265             11.583             -5.265  0.000000e+00  0.000000e+00  0.000000e+00
        99      pv             -5.265             11.583              7.371  0.000000e+00  0.000000e+00  0.000000e+00
       100      pv              7.371             -1.053             -5.265  0.000000e+00  0.000000e+00  0.000000e+00
       101      pv              7.371             -1.053              7.371  0.000000e+00  0.000000e+00  0.000000e+00
       102      pv              7.371             11.583             -5.265  0.000000e+00  0.000000e+00  0.000000e+00
       103      pv              7.371             11.583              7.371  0.000000e+00  0.000000e+00  0.000000e+00
       104      pv             -5.265              1.053             -3.159  0.000000e+00  0.000000e+00  0.000000e+00
       105      pv             -5.265              1.053              9.477  0.000000e+00  0.000000e+00  0.000000e+00
       106      pv             -5.265             13.689             -3.159  0.000000e+00  0.000000e+00  0.000000e+00
       107      pv             -5.265             13.689              9.477  0.000000e+00  0.000000e+00  0.000000e+00
       108      pv              7.371              1.053             -3.159  0.000000e+00  0.000000e+00  0.000000e+00
       109      pv              7.371              1.053              9.477  0.000000e+00  0.000000e+00  0.000000e+00
       110      pv              7.371             13.689             -3.159  0.000000e+00  0.000000e+00  0.000000e+00
       111      pv              7.371             13.689              9.477  0.000000e+00  0.000000e+00  0.000000e+00
       112      pv             -3.159             -1.053             -3.159  0.000000e+00  0.000000e+00  0.000000e+00
       113      pv             -3.159             -1.053              9.477  0.000000e+00  0.000000e+00  0.000000e+00
       114      pv             -3.159             11.583             -3.159  0.000000e+00  0.000000e+00  0.000000e+00
       115      pv             -3.159             11.583              9.477  0.000000e+00  0.000000e+00  0.000000e+00
       116      pv              9.477             -1.053             -3.159  0.000000e+00  0.000000e+00  0.000000e+00
       117      pv              9.477             -1.053              9.477  0.000000e+00  0.000000e+00  0.000000e+00
       118      pv              9.477             11.583             -3.159  0.000000e+00  0.000000e+00  0.000000e+00
       119      pv              9.477             11.583              9.477  0.000000e+00  0.000000e+00  0.000000e+00
       120      pv             -3.159              1.053             -5.265  0.000000e+00  0.000000e+00  0.000000e+00
       121      pv             -3.159              1.053              7.371  0.000000e+00  0.000000e+00  0.000000e+00
       122      pv             -3.159             13.689             -5.265  0.000000e+00  0.000000e+00  0.000000e+00
       123      pv             -3.159             13.689              7.371  0.000000e+00  0.000000e+00  0.000000e+00
       124      pv              9.477              1.053             -5.265  0.000000e+00  0.000000e+00  0.000000e+00
       125      pv              9.477              1.053              7.371  0.000000e+00  0.000000e+00  0.000000e+00
       126      pv              9.477             13.689             -5.265  0.000000e+00  0.000000e+00  0.000000e+00
       127      pv              9.477             13.689              7.371  0.000000e+00  0.000000e+00  0.000000e+00
       128      pv             -5.265             -1.053             -1.053  0.000000e+00  0.000000e+00  0.000000e+00
       129      pv             -5.265             -1.053             11.583  0.000000e+00  0.000000e+00  0.000000e+00
       130      pv             -5.265             11.583             -1.053  0.000000e+00  0.000000e+00  0.000000e+00
       131      pv             -5.265             11.583             11.583  0.000000e+00  0.000000e+00  0.000000e+00
       132      pv              7.371             -1.053             -1.053  0.000000e+00  0.000000e+00  0.000000e+00
       133      pv              7.371             -1.053             11.583  0.000000e+00  0.000000e+00  0.000000e+00
       134      pv              7.371             11.583             -1.053  0.000000e+00  0.000000e+00  0.000000e+00
       135      pv              7.371             11.583             11.583  0.000000e+00  0.000000e+00  0.000000e+00
       136      pv             -5.265              1.053              1.053  0.000000e+00  0.000000e+00  0.000000e+00
       137      pv             -5.265              1.053             13.689  0.000000e+00  0.000000e+00  0.000000e+00
       138      pv             -5.265             13.689              1.053  0.000000e+00  0.000000e+00  0.000000e+00
       139      pv             -5.265             13.689             13.689  0.000000e+00  0.000000e+00  0.000000e+00
       140      pv              7.371              1.053              1.053  0.000000e+00  0.000000e+00  0.000000e+00
       141      pv              7.371              1.053             13.689  0.000000e+00  0.000000e+00  0.000000e+00
       142      pv              7.371             13.689              1.053  0.000000e+00  0.000000e+00  0.000000e+00
       143      pv              7.371             13.689             13.689  0.000000e+00  0.000000e+00  0.000000e+00
       144      pv             -3.159             -1.053              1.053  0.000000e+00  0.000000e+00  0.000000e+00
       145      pv             -3.159             -1.053             13.689  0.000000e+00  0.000000e+00  0.000000e+00
       146      pv             -3.159             11.583              1.053  0.000000e+00  0.000000e+00  0.000000e+00
       147      pv             -3.159             11.583             13.689  0.000000e+00  0.000000e+00  0.000000e+00
       148      pv              9.477             -1.053              1.053  0.000000e+00  0.000000e+00  0.000000e+00
       149      pv              9.477             -1.053             13.689  0.000000e+00  0.000000e+00  0.000000e+00
       150      pv              9.477             11.583              1.053  0.000000e+00  0.000000e+00  0.000000e+00
       151      pv              9.477             11.583             13.689  0.000000e+00  0.000000e+00  0.000000e+00
       152      pv             -3.159              1.053             -1.053  0.000000e+00  0.000000e+00  0.000000e+00
       153      pv             -3.159              1.053             11.583  0.000000e+00  0.000000e+00  0.000000e+00
       154      pv             -3.159             13.689             -1.053  0.000000e+00  0.000000e+00  0.000000e+00
       155      pv             -3.159             13.689             11.583  0.000000e+00  0.000000e+00  0.000000e+00
       156      pv              9.477              1.053             -1.053  0.000000e+00  0.000000e+00  0.000000e+00
       157      pv              9.477              1.053             11.583  0.000000e+00  0.000000e+00  0.000000e+00
       158      pv              9.477             13.689             -1.053  0.000000e+00  0.000000e+00  0.000000e+00
       159      pv              9.477             13.689             11.583  0.000000e+00  0.000000e+00  0.000000e+00
       160      pv             -5.265             -1.053              3.159  0.000000e+00  0.000000e+00  0.000000e+00
       161      pv             -5.265             -1.053             15.795  0.000000e+00  0.000000e+00  0.000000e+00
       162      pv             -5.265             11.583              3.159  0.000000e+00  0.000000e+00  0.000000e+00
       163      pv             -5.265             11.583             15.795  0.000000e+00  0.000000e+00  0.000000e+00
       164      pv              7.371             -1.053              3.159  0.000000e+00  0.000000e+00  0.000000e+00
       165      pv              7.371             -1.053             15.795  0.000000e+00  0.000000e+00  0.000000e+00
       166      pv              7.371             11.583              3.159  0.000000e+00  0.000000e+00  0.000000e+00
       167      pv              7.371             11.583             15.795  0.000000e+00  0.000000e+00  0.000000e+00
       168      pv             -5.265              1.053              5.265  0.000000e+00  0.000000e+00  0.000000e+00
       169      pv             -5.265              1.053             17.901  0.000000e+00  0.000000e+00  0.000000e+00
       170      pv             -5.265             13.689              5.265  0.000000e+00  0.000000e+00  0.000000e+00
       171      pv             -5.265             13.689             17.901  0.000000e+00  0.000000e+00  0.000000e+00
       172      pv              7.371              1.053              5.265  0.000000e+00  0.000000e+00  0.000000e+00
       173      pv              7.371              1.053             17.901  0.000000e+00  0.000000e+00  0.000000e+00
       174      pv              7.371             13.689              5.265  0.000000e+00  0.000000e+00  0.000000e+00
       175      pv              7.371             13.689             17.901  0.000000e+00  0.000000e+00  0.000000e+00
       176      pv             -3.159             -1.053              5.265  0.000000e+00  0.000000e+00  0.000000e+00
       177      pv             -3.159             -1.053             17.901  0.000000e+00  0.000000e+00  0.000000e+00
       178      pv             -3.159             11.583              5.265  0.000000e+00  0.000000e+00  0.000000e+00
       179      pv             -3.159             11.583             17.901  0.000000e+00  0.000000e+00  0.000000e+00
       180      pv              9.477             -1.053              5.265  0.000000e+00  0.000000e+00  0.000000e+00
       181      pv              9.477             -1.053             17.901  0.000000e+00  0.000000e+00  0.000000e+00
       182      pv              9.477             11.583              5.265  0.000000e+00  0.000000e+00  0.000000e+00
       183      pv              9.477             11.583             17.901  0.000000e+00  0.000000e+00  0.000000e+00
       184      pv             -3.159              1.053              3.159  0.000000e+00  0.000000e+00  0.000000e+00
       185      pv             -3.159              1.053             15.795  0.000000e+00  0.000000e+00  0.000000e+00
       186      pv             -3.159             13.689              3.159  0.000000e+00  0.000000e+00  0.000000e+00
       187      pv             -3.159             13.689             15.795  0.000000e+00  0.000000e+00  0.000000e+00
       188      pv              9.477              1.053              3.159  0.000000e+00  0.000000e+00  0.000000e+00
       189      pv              9.477              1.053             15.795  0.000000e+00  0.000000e+00  0.000000e+00
       190      pv              9.477             13.689              3.159  0.000000e+00  0.000000e+00  0.000000e+00
       191      pv              9.477             13.689             15.795  0.000000e+00  0.000000e+00  0.000000e+00
       192      pv             -5.265              3.159             -5.265  0.000000e+00  0.000000e+00  0.000000e+00
       193      pv             -5.265              3.159              7.371  0.000000e+00  0.000000e+00  0.000000e+00
       194      pv             -5.265             15.795             -5.265  0.000000e+00  0.000000e+00  0.000000e+00
       195      pv             -5.265             15.795              7.371  0.000000e+00  0.000000e+00  0.000000e+00
       196      pv              7.371              3.159             -5.265  0.000000e+00  0.000000e+00  0.000000e+00
       197      pv              7.371              3.159              7.371  0.000000e+00  0.000000e+00  0.000000e+00
       198      pv              7.371             15.795             -5.265  0.000000e+00  0.000000e+00  0.000000e+00
       199      pv              7.371             15.795              7.371  0.000000e+00  0.000000e+00  0.000000e+00
       200      pv             -5.265              5.265             -3.159  0.000000e+00  0.000000e+00  0.000000e+00
       201      pv             -5.265              5.265              9.477  0.000000e+00  0.000000e+00  0.000000e+00
       202      pv             -5.265             17.901             -3.159  0.000000e+00  0.000000e+00  0.000000e+00
       203      pv             -5.265             17.901              9.477  0.000000e+00  0.000000e+00  0.000000e+00
       204      pv              7.371              5.265             -3.159  0.000000e+00  0.000000e+00  0.000000e+00
       205      pv              7.371              5.265              9.477  0.000000e+00  0.000000e+00  0.000000e+00
       206      pv              7.371             17.901             -3.159  0.000000e+00  0.000000e+00  0.000000e+00
       207      pv              7.371             17.901              9.477  0.000000e+00  0.000000e+00  0.000000e+00
       208      pv             -3.159              3.159             -3.159  0.000000e+00  0.000000e+00  0.000000e+00
       209      pv             -3.159              3.159              9.477  0.000000e+00  0.000000e+00  0.000000e+00
       210      pv             -3.159             15.795             -3.159  0.000000e+00  0.000000e+00  0.000000e+00
       211      pv             -3.159             15.795              9.477  0.000000e+00  0.000000e+00  0.000000e+00
       212      pv              9.477              3.159             -3.159  0.000000e+00  0.000000e+00  0.000000e+00
       213      pv              9.477              3.159              9.477  0.000000e+00  0.000000e+00  0.000000e+00
       214      pv              9.477             15.795             -3.159  0.000000e+00  0.000000e+00  0.000000e+00
       215      pv              9.477             15.795              9.477  0.000000e+00  0.000000e+00  0.000000e+00
       216      pv             -3.159              5.265             -5.265  0.000000e+00  0.000000e+00  0.000000e+00
       217      pv             -3.159              5.265              7.371  0.000000e+00  0.000000e+00  0.000000e+00
       218      pv             -3.159             17.901             -5.265  0.000000e+00  0.000000e+00  0.000000e+00
       219      pv             -3.159             17.901              7.371  0.000000e+00  0.000000e+00  0.000000e+00
       220      pv              9.477              5.265             -5.265  0.000000e+00  0.000000e+00  0.000000e+00
       221      pv              9.477              5.265              7.371  0.000000e+00  0.000000e+00  0.000000e+00
       222      pv              9.477             17.901             -5.265  0.000000e+00  0.000000e+00  0.000000e+00
       223      pv              9.477             17.901              7.371  0.000000e+00  0.000000e+00  0.000000e+00
       224      pv             -5.265              3.159             -1.053  0.000000e+00  0.000000e+00  0.000000e+00
       225      pv             -5.265              3.159             11.583  0.000000e+00  0.000000e+00  0.000000e+00
       226      pv             -5.265             15.795             -1.053  0.000000e+00  0.000000e+00  0.000000e+00
       227      pv             -5.265             15.795             11.583  0.000000e+00  0.000000e+00  0.000000e+00
       228      pv              7.371              3.159             -1.053  0.000000e+00  0.000000e+00  0.000000e+00
       229      pv              7.371              3.159             11.583  0.000000e+00  0.000000e+00  0.000000e+00
       230      pv              7.371             15.795             -1.053  0.000000e+00  0.000000e+00  0.000000e+00
       231      pv              7.371             15.795             11.583  0.000000e+00  0.000000e+00  0.000000e+00
       232      pv             -5.265              5.265              1.053  0.000000e+00  0.000000e+00  0.000000e+00
       233      pv             -5.265              5.265             13.689  0.000000e+00  0.000000e+00  0.000000e+00
       234      pv             -5.265             17.901              1.053  0.000000e+00  0.000000e+00  0.000000e+00
       235      pv             -5.265             17.901             13.689  0.000000e+00  0.000000e+00  0.000000e+00
       236      pv              7.371              5.265              1.053  0.000000e+00  0.000000e+00  0.000000e+00
       237      pv              7.371              5.265             13.689  0.000000e+00  0.000000e+00  0.000000e+00
       238      pv              7.371             17.901              1.053  0.000000e+00  0.000000e+00  0.000000e+00
       239      pv              7.371             17.901             13.689  0.000000e+00  0.000000e+00  0.000000e+00
       240      pv             -3.159              3.159              1.053  0.000000e+00  0.000000e+00  0.000000e+00
       241      pv             -3.159              3.159             13.689  0.000000e+00  0.000000e+00  0.000000e+00
       242      pv             -3.159             15.795              1.053  0.000000e+00  0.000000e+00  0.000000e+00
       243      pv             -3.159             15.795             13.689  0.000000e+00  0.000000e+00  0.000000e+00