<OpenMD version=1>
  <MetaData>

molecule{
  name = "O";
  
  atom[0]{
     type="O_FQ";
     position( 0.0, 0.0, 0.0 );
  }
}

component{
  type = "O";
  nMol = 2;
}

targetTemp = 500.0;
targetPressure = 1.0;

forceField = "metalsFQ";
forceFieldFileName = "metalsFQ.frc";

ensemble = "NVE";
dt = 0.01;
runTime = 2e3;
cutoffRadius = 5.5;

statusTime = 1;
sampleTime = 10.0;
seed = 985456376;

useInitialExtendedSystemState="false";
useInitialTime="false";
tauThermostat = 1E3;
tauBarostat = 5E3;
uniformField = (0, 0, 5.0e-2);
outputElectricField = true;
outputFluctuatingCharges = true;

  </MetaData>
  <Snapshot>
    <FrameData>
        Time: 0
        Hmat: {{ 41.10, 0, 0 }, { 0, 27.20, 0 }, { 0, 0, 34.64 }}
  Thermostat: 0, 0
    Barostat: {{ 0, 0, 0 }, { 0, 0, 0 }, { 0, 0, 0 }}
    </FrameData>
    <StuntDoubles>
	 	0	 pv 	0 0 0 	 0 	 0 	 0
	 	1	 pv 	0 0 1.2  0 	 0 	 0
    </StuntDoubles>
  </Snapshot>
</OpenMD>
