<OpenMD version=1>
  <MetaData>

molecule{
  name = "Pb";

  atom[0]{
    type="Pb_FQ";
    position( 0.0, 0.0, 0.0 );
  }
}

molecule{
  name = "O";

  atom[0]{
    type="O_FQ";
    position( 0.0, 0.0, 0.0 );
  }
}

component{
  type = "Pb";
        nMol = 576;
}
component{
  type = "O";
        nMol = 768;
}

flucQ {
  propagator = "Damped";
  targetTemp = 1;
  dragCoefficient = 1;
}

forceField = "DR-EAM";
forceFieldFileName="DR-EAM.v2.frc";

outputFluctuatingCharges = true;
outputElectricField = true;
outputDensity = true;

ensemble = NVT;
dt = 0.1;
runTime = 1;
sampleTime = 1;
statusTime = 1;
targetTemp = 10;
tauThermostat = 100;

cutoffMethod = "shifted_force";
cutoffRadius = 12;
electrostaticScreeningMethod = "DAMPED";
dampingAlpha = 0.105;

statFileFormat = "TIME|TOTAL_ENERGY|POTENTIAL_ENERGY|KINETIC_ENERGY|TEMPERATURE|PRESSURE|VOLUME|CONSERVED_QUANTITY|SYSTEM DIPOLE";

  </MetaData>
  <Snapshot>
    <FrameData>
        Time: 0
        Hmat: {{ 28.1436, 0, 0 }, { 0, 25.844, 0 }, { 0, 0, 26.5344 }}
  Thermostat: 0 , 0
    Barostat: {{ 0, 0, 0 }, { 0, 0, 0 }, { 0, 0, 0 }}
    </FrameData>
    <StuntDoubles>
	0	pv	-12.424086	-6.785988	-11.608801	0	0	0
	1	pv	-12.424086	-6.785988	-8.292	0	0	0
	2	pv	-12.424086	-6.785988	-4.9752	0	0	0
	3	pv	-12.424086	-6.785988	-1.6584	0	0	0
	4	pv	-12.424086	-6.785988	1.6584	0	0	0
	5	pv	-12.424086	-6.785988	4.9752	0	0	0
	6	pv	-12.424086	-6.785988	8.292	0	0	0
	7	pv	-12.424086	-6.785988	11.608801	0	0	0
	8	pv	-12.424086	-0.324988	-11.608801	0	0	0
	9	pv	-12.424086	-0.324988	-8.292	0	0	0
	10	pv	-12.424086	-0.324988	-4.9752	0	0	0
	11	pv	-12.424086	-0.324988	-1.6584	0	0	0
	12	pv	-12.424086	-0.324988	1.6584	0	0	0
	13	pv	-12.424086	-0.324988	4.9752	0	0	0
	14	pv	-12.424086	-0.324988	8.292	0	0	0
	15	pv	-12.424086	-0.324988	11.608801	0	0	0
	16	pv	-12.424086	6.136012	-11.608801	0	0	0
	17	pv	-12.424086	6.136012	-8.292	0	0	0
	18	pv	-12.424086	6.136012	-4.9752	0	0	0
	19	pv	-12.424086	6.136012	-1.6584	0	0	0
	20	pv	-12.424086	6.136012	1.6584	0	0	0
	21	pv	-12.424086	6.136012	4.9752	0	0	0
	22	pv	-12.424086	6.136012	8.292	0	0	0
	23	pv	-12.424086	6.136012	11.608801	0	0	0
	24	pv	-12.424086	12.597012	-11.608801	0	0	0
	25	pv	-12.424086	12.597012	-8.292	0	0	0
	26	pv	-12.424086	12.597012	-4.9752	0	0	0
	27	pv	-12.424086	12.597012	-1.6584	0	0	0
	28	pv	-12.424086	12.597012	1.6584	0	0	0
	29	pv	-12.424086	12.597012	4.9752	0	0	0
	30	pv	-12.424086	12.597012	8.292	0	0	0
	31	pv	-12.424086	12.597012	11.608801	0	0	0
	32	pv	-3.042886	-6.785988	-11.608801	0	0	0
	33	pv	-3.042886	-6.785988	-8.292	0	0	0
	34	pv	-3.042886	-6.785988	-4.9752	0	0	0
	35	pv	-3.042886	-6.785988	-1.6584	0	0	0
	36	pv	-3.042886	-6.785988	1.6584	0	0	0
	37	pv	-3.042886	-6.785988	4.9752	0	0	0
	38	pv	-3.042886	-6.785988	8.292	0	0	0
	39	pv	-3.042886	-6.785988	11.608801	0	0	0
	40	pv	-3.042886	-0.324988	-11.608801	0	0	0
	41	pv	-3.042886	-0.324988	-8.292	0	0	0
	42	pv	-3.042886	-0.324988	-4.9752	0	0	0
	43	pv	-3.042886	-0.324988	-1.6584	0	0	0
	44	pv	-3.042886	-0.324988	1.6584	0	0	0
	45	pv	-3.042886	-0.324988	4.9752	0	0	0
	46	pv	-3.042886	-0.324988	8.292	0	0	0
	47	pv	-3.042886	-0.324988	11.608801	0	0	0
	48	pv	-3.042886	6.136012	-11.608801	0	0	0
	49	pv	-3.042886	6.136012	-8.292	0	0	0
	50	pv	-3.042886	6.136012	-4.9752	0	0	0
	51	pv	-3.042886	6.136012	-1.6584	0	0	0
	52	pv	-3.042886	6.136012	1.6584	0	0	0
	53	pv	-3.042886	6.136012	4.9752	0	0	0
	54	pv	-3.042886	6.136012	8.292	0	0	0
	55	pv	-3.042886	6.136012	11.608801	0	0	0
	56	pv	-3.042886	12.597012	-11.608801	0	0	0
	57	pv	-3.042886	12.597012	-8.292	0	0	0
	58	pv	-3.042886	12.597012	-4.9752	0	0	0
	59	pv	-3.042886	12.597012	-1.6584	0	0	0
	60	pv	-3.042886	12.597012	1.6584	0	0	0
	61	pv	-3.042886	12.597012	4.9752	0	0	0
	62	pv	-3.042886	12.597012	8.292	0	0	0
	63	pv	-3.042886	12.597012	11.608801	0	0	0
	64	pv	6.338314	-6.785988	-11.608801	0	0	0
	65	pv	6.338314	-6.785988	-8.292	0	0	0
	66	pv	6.338314	-6.785988	-4.9752	0	0	0
	67	pv	6.338314	-6.785988	-1.6584	0	0	0
	68	pv	6.338314	-6.785988	1.6584	0	0	0
	69	pv	6.338314	-6.785988	4.9752	0	0	0
	70	pv	6.338314	-6.785988	8.292	0	0	0
	71	pv	6.338314	-6.785988	11.608801	0	0	0
	72	pv	6.338314	-0.324988	-11.608801	0	0	0
	73	pv	6.338314	-0.324988	-8.292	0	0	0
	74	pv	6.338314	-0.324988	-4.9752	0	0	0
	75	pv	6.338314	-0.324988	-1.6584	0	0	0
	76	pv	6.338314	-0.324988	1.6584	0	0	0
	77	pv	6.338314	-0.324988	4.9752	0	0	0
	78	pv	6.338314	-0.324988	8.292	0	0	0
	79	pv	6.338314	-0.324988	11.608801	0	0	0
	80	pv	6.338314	6.136012	-11.608801	0	0	0
	81	pv	6.338314	6.136012	-8.292	0	0	0
	82	pv	6.338314	6.136012	-4.9752	0	0	0
	83	pv	6.338314	6.136012	-1.6584	0	0	0
	84	pv	6.338314	6.136012	1.6584	0	0	0
	85	pv	6.338314	6.136012	4.9752	0	0	0
	86	pv	6.338314	6.136012	8.292	0	0	0
	87	pv	6.338314	6.136012	11.608801	0	0	0
	88	pv	6.338314	12.597012	-11.608801	0	0	0
	89	pv	6.338314	12.597012	-8.292	0	0	0
	90	pv	6.338314	12.597012	-4.9752	0	0	0
	91	pv	6.338314	12.597012	-1.6584	0	0	0
	92	pv	6.338314	12.597012	1.6584	0	0	0
	93	pv	6.338314	12.597012	4.9752	0	0	0
	94	pv	6.338314	12.597012	8.292	0	0	0
	95	pv	6.338314	12.597012	11.608801	0	0	0
	96	pv	-15.719514	-12.597012	-11.608801	0	0	0
	97	pv	-15.719514	-12.597012	-8.292	0	0	0
	98	pv	-15.719514	-12.597012	-4.9752	0	0	0
	99	pv	-15.719514	-12.597012	-1.6584	0	0	0
	100	pv	-15.719514	-12.597012	1.6584	0	0	0
	101	pv	-15.719514	-12.597012	4.9752	0	0	0
	102	pv	-15.719514	-12.597012	8.292	0	0	0
	103	pv	-15.719514	-12.597012	11.608801	0	0	0
	104	pv	-15.719514	-6.136012	-11.608801	0	0	0
	105	pv	-15.719514	-6.136012	-8.292	0	0	0
	106	pv	-15.719514	-6.136012	-4.9752	0	0	0
	107	pv	-15.719514	-6.136012	-1.6584	0	0	0
	108	pv	-15.719514	-6.136012	1.6584	0	0	0
	109	pv	-15.719514	-6.136012	4.9752	0	0	0
	110	pv	-15.719514	-6.136012	8.292	0	0	0
	111	pv	-15.719514	-6.136012	11.608801	0	0	0
	112	pv	-15.719514	0.324988	-11.608801	0	0	0
	113	pv	-15.719514	0.324988	-8.292	0	0	0
	114	pv	-15.719514	0.324988	-4.9752	0	0	0
	115	pv	-15.719514	0.324988	-1.6584	0	0	0
	116	pv	-15.719514	0.324988	1.6584	0	0	0
	117	pv	-15.719514	0.324988	4.9752	0	0	0
	118	pv	-15.719514	0.324988	8.292	0	0	0
	119	pv	-15.719514	0.324988	11.608801	0	0	0
	120	pv	-15.719514	6.785988	-11.608801	0	0	0
	121	pv	-15.719514	6.785988	-8.292	0	0	0
	122	pv	-15.719514	6.785988	-4.9752	0	0	0
	123	pv	-15.719514	6.785988	-1.6584	0	0	0
	124	pv	-15.719514	6.785988	1.6584	0	0	0
	125	pv	-15.719514	6.785988	4.9752	0	0	0
	126	pv	-15.719514	6.785988	8.292	0	0	0
	127	pv	-15.719514	6.785988	11.608801	0	0	0
	128	pv	-6.338314	-12.597012	-11.608801	0	0	0
	129	pv	-6.338314	-12.597012	-8.292	0	0	0
	130	pv	-6.338314	-12.597012	-4.9752	0	0	0
	131	pv	-6.338314	-12.597012	-1.6584	0	0	0
	132	pv	-6.338314	-12.597012	1.6584	0	0	0
	133	pv	-6.338314	-12.597012	4.9752	0	0	0
	134	pv	-6.338314	-12.597012	8.292	0	0	0
	135	pv	-6.338314	-12.597012	11.608801	0	0	0
	136	pv	-6.338314	-6.136012	-11.608801	0	0	0
	137	pv	-6.338314	-6.136012	-8.292	0	0	0
	138	pv	-6.338314	-6.136012	-4.9752	0	0	0
	139	pv	-6.338314	-6.136012	-1.6584	0	0	0
	140	pv	-6.338314	-6.136012	1.6584	0	0	0
	141	pv	-6.338314	-6.136012	4.9752	0	0	0
	142	pv	-6.338314	-6.136012	8.292	0	0	0
	143	pv	-6.338314	-6.136012	11.608801	0	0	0
	144	pv	-6.338314	0.324988	-11.608801	0	0	0
	145	pv	-6.338314	0.324988	-8.292	0	0	0
	146	pv	-6.338314	0.324988	-4.9752	0	0	0
	147	pv	-6.338314	0.324988	-1.6584	0	0	0
	148	pv	-6.338314	0.324988	1.6584	0	0	0
	149	pv	-6.338314	0.324988	4.9752	0	0	0
	150	pv	-6.338314	0.324988	8.292	0	0	0
	151	pv	-6.338314	0.324988	11.608801	0	0	0
	152	pv	-6.338314	6.785988	-11.608801	0	0	0
	153	pv	-6.338314	6.785988	-8.292	0	0	0
	154	pv	-6.338314	6.785988	-4.9752	0	0	0
	155	pv	-6.338314	6.785988	-1.6584	0	0	0
	156	pv	-6.338314	6.785988	1.6584	0	0	0
	157	pv	-6.338314	6.785988	4.9752	0	0	0
	158	pv	-6.338314	6.785988	8.292	0	0	0
	159	pv	-6.338314	6.785988	11.608801	0	0	0
	160	pv	3.042886	-12.597012	-11.608801	0	0	0
	161	pv	3.042886	-12.597012	-8.292	0	0	0
	162	pv	3.042886	-12.597012	-4.9752	0	0	0
	163	pv	3.042886	-12.597012	-1.6584	0	0	0
	164	pv	3.042886	-12.597012	1.6584	0	0	0
	165	pv	3.042886	-12.597012	4.9752	0	0	0
	166	pv	3.042886	-12.597012	8.292	0	0	0
	167	pv	3.042886	-12.597012	11.608801	0	0	0
	168	pv	3.042886	-6.136012	-11.608801	0	0	0
	169	pv	3.042886	-6.136012	-8.292	0	0	0
	170	pv	3.042886	-6.136012	-4.9752	0	0	0
	171	pv	3.042886	-6.136012	-1.6584	0	0	0
	172	pv	3.042886	-6.136012	1.6584	0	0	0
	173	pv	3.042886	-6.136012	4.9752	0	0	0
	174	pv	3.042886	-6.136012	8.292	0	0	0
	175	pv	3.042886	-6.136012	11.608801	0	0	0
	176	pv	3.042886	0.324988	-11.608801	0	0	0
	177	pv	3.042886	0.324988	-8.292	0	0	0
	178	pv	3.042886	0.324988	-4.9752	0	0	0
	179	pv	3.042886	0.324988	-1.6584	0	0	0
	180	pv	3.042886	0.324988	1.6584	0	0	0
	181	pv	3.042886	0.324988	4.9752	0	0	0
	182	pv	3.042886	0.324988	8.292	0	0	0
	183	pv	3.042886	0.324988	11.608801	0	0	0
	184	pv	3.042886	6.785988	-11.608801	0	0	0
	185	pv	3.042886	6.785988	-8.292	0	0	0
	186	pv	3.042886	6.785988	-4.9752	0	0	0
	187	pv	3.042886	6.785988	-1.6584	0	0	0
	188	pv	3.042886	6.785988	1.6584	0	0	0
	189	pv	3.042886	6.785988	4.9752	0	0	0
	190	pv	3.042886	6.785988	8.292	0	0	0
	191	pv	3.042886	6.785988	11.608801	0	0	0
	192	pv	-11.028913	-10.016488	-11.608801	0	0	0
	193	pv	-11.028913	-10.016488	-8.292	0	0	0
	194	pv	-11.028913	-10.016488	-4.9752	0	0	0
	195	pv	-11.028913	-10.016488	-1.6584	0	0	0
	196	pv	-11.028913	-10.016488	1.6584	0	0	0
	197	pv	-11.028913	-10.016488	4.9752	0	0	0
	198	pv	-11.028913	-10.016488	8.292	0	0	0
	199	pv	-11.028913	-10.016488	11.608801	0	0	0
	200	pv	-11.028913	-3.555488	-11.608801	0	0	0
	201	pv	-11.028913	-3.555488	-8.292	0	0	0
	202	pv	-11.028913	-3.555488	-4.9752	0	0	0
	203	pv	-11.028913	-3.555488	-1.6584	0	0	0
	204	pv	-11.028913	-3.555488	1.6584	0	0	0
	205	pv	-11.028913	-3.555488	4.9752	0	0	0
	206	pv	-11.028913	-3.555488	8.292	0	0	0
	207	pv	-11.028913	-3.555488	11.608801	0	0	0
	208	pv	-11.028913	2.905512	-11.608801	0	0	0
	209	pv	-11.028913	2.905512	-8.292	0	0	0
	210	pv	-11.028913	2.905512	-4.9752	0	0	0
	211	pv	-11.028913	2.905512	-1.6584	0	0	0
	212	pv	-11.028913	2.905512	1.6584	0	0	0
	213	pv	-11.028913	2.905512	4.9752	0	0	0
	214	pv	-11.028913	2.905512	8.292	0	0	0
	215	pv	-11.028913	2.905512	11.608801	0	0	0
	216	pv	-11.028913	9.366511	-11.608801	0	0	0
	217	pv	-11.028913	9.366511	-8.292	0	0	0
	218	pv	-11.028913	9.366511	-4.9752	0	0	0
	219	pv	-11.028913	9.366511	-1.6584	0	0	0
	220	pv	-11.028913	9.366511	1.6584	0	0	0
	221	pv	-11.028913	9.366511	4.9752	0	0	0
	222	pv	-11.028913	9.366511	8.292	0	0	0
	223	pv	-11.028913	9.366511	11.608801	0	0	0
	224	pv	-1.647714	-10.016488	-11.608801	0	0	0
	225	pv	-1.647714	-10.016488	-8.292	0	0	0
	226	pv	-1.647714	-10.016488	-4.9752	0	0	0
	227	pv	-1.647714	-10.016488	-1.6584	0	0	0
	228	pv	-1.647714	-10.016488	1.6584	0	0	0
	229	pv	-1.647714	-10.016488	4.9752	0	0	0
	230	pv	-1.647714	-10.016488	8.292	0	0	0
	231	pv	-1.647714	-10.016488	11.608801	0	0	0
	232	pv	-1.647714	-3.555488	-11.608801	0	0	0
	233	pv	-1.647714	-3.555488	-8.292	0	0	0
	234	pv	-1.647714	-3.555488	-4.9752	0	0	0
	235	pv	-1.647714	-3.555488	-1.6584	0	0	0
	236	pv	-1.647714	-3.555488	1.6584	0	0	0
	237	pv	-1.647714	-3.555488	4.9752	0	0	0
	238	pv	-1.647714	-3.555488	8.292	0	0	0
	239	pv	-1.647714	-3.555488	11.608801	0	0	0
	240	pv	-1.647714	2.905512	-11.608801	0	0	0
	241	pv	-1.647714	2.905512	-8.292	0	0	0
	242	pv	-1.647714	2.905512	-4.9752	0	0	0
	243	pv	-1.647714	2.905512	-1.6584	0	0	0
	244	pv	-1.647714	2.905512	1.6584	0	0	0
	245	pv	-1.647714	2.905512	4.9752	0	0	0
	246	pv	-1.647714	2.905512	8.292	0	0	0
	247	pv	-1.647714	2.905512	11.608801	0	0	0
	248	pv	-1.647714	9.366511	-11.608801	0	0	0
	249	pv	-1.647714	9.366511	-8.292	0	0	0
	250	pv	-1.647714	9.366511	-4.9752	0	0	0
	251	pv	-1.647714	9.366511	-1.6584	0	0	0
	252	pv	-1.647714	9.366511	1.6584	0	0	0
	253	pv	-1.647714	9.366511	4.9752	0	0	0
	254	pv	-1.647714	9.366511	8.292	0	0	0
	255	pv	-1.647714	9.366511	11.608801	0	0	0
	256	pv	7.733486	-10.016488	-11.608801	0	0	0
	257	pv	7.733486	-10.016488	-8.292	0	0	0
	258	pv	7.733486	-10.016488	-4.9752	0	0	0
	259	pv	7.733486	-10.016488	-1.6584	0	0	0
	260	pv	7.733486	-10.016488	1.6584	0	0	0
	261	pv	7.733486	-10.016488	4.9752	0	0	0
	262	pv	7.733486	-10.016488	8.292	0	0	0
	263	pv	7.733486	-10.016488	11.608801	0	0	0
	264	pv	7.733486	-3.555488	-11.608801	0	0	0
	265	pv	7.733486	-3.555488	-8.292	0	0	0
	266	pv	7.733486	-3.555488	-4.9752	0	0	0
	267	pv	7.733486	-3.555488	-1.6584	0	0	0
	268	pv	7.733486	-3.555488	1.6584	0	0	0
	269	pv	7.733486	-3.555488	4.9752	0	0	0
	270	pv	7.733486	-3.555488	8.292	0	0	0
	271	pv	7.733486	-3.555488	11.608801	0	0	0
	272	pv	7.733486	2.905512	-11.608801	0	0	0
	273	pv	7.733486	2.905512	-8.292	0	0	0
	274	pv	7.733486	2.905512	-4.9752	0	0	0
	275	pv	7.733486	2.905512	-1.6584	0	0	0
	276	pv	7.733486	2.905512	1.6584	0	0	0
	277	pv	7.733486	2.905512	4.9752	0	0	0
	278	pv	7.733486	2.905512	8.292	0	0	0
	279	pv	7.733486	2.905512	11.608801	0	0	0
	280	pv	7.733486	9.366511	-11.608801	0	0	0
	281	pv	7.733486	9.366511	-8.292	0	0	0
	282	pv	7.733486	9.366511	-4.9752	0	0	0
	283	pv	7.733486	9.366511	-1.6584	0	0	0
	284	pv	7.733486	9.366511	1.6584	0	0	0
	285	pv	7.733486	9.366511	4.9752	0	0	0
	286	pv	7.733486	9.366511	8.292	0	0	0
	287	pv	7.733486	9.366511	11.608801	0	0	0
	288	pv	-17.114685	-9.366511	-11.608801	0	0	0
	289	pv	-17.114685	-9.366511	-8.292	0	0	0
	290	pv	-17.114685	-9.366511	-4.9752	0	0	0
	291	pv	-17.114685	-9.366511	-1.6584	0	0	0
	292	pv	-17.114685	-9.366511	1.6584	0	0	0
	293	pv	-17.114685	-9.366511	4.9752	0	0	0
	294	pv	-17.114685	-9.366511	8.292	0	0	0
	295	pv	-17.114685	-9.366511	11.608801	0	0	0
	296	pv	-17.114685	-2.905512	-11.608801	0	0	0
	297	pv	-17.114685	-2.905512	-8.292	0	0	0
	298	pv	-17.114685	-2.905512	-4.9752	0	0	0
	299	pv	-17.114685	-2.905512	-1.6584	0	0	0
	300	pv	-17.114685	-2.905512	1.6584	0	0	0
	301	pv	-17.114685	-2.905512	4.9752	0	0	0
	302	pv	-17.114685	-2.905512	8.292	0	0	0
	303	pv	-17.114685	-2.905512	11.608801	0	0	0
	304	pv	-17.114685	3.555488	-11.608801	0	0	0
	305	pv	-17.114685	3.555488	-8.292	0	0	0
	306	pv	-17.114685	3.555488	-4.9752	0	0	0
	307	pv	-17.114685	3.555488	-1.6584	0	0	0
	308	pv	-17.114685	3.555488	1.6584	0	0	0
	309	pv	-17.114685	3.555488	4.9752	0	0	0
	310	pv	-17.114685	3.555488	8.292	0	0	0
	311	pv	-17.114685	3.555488	11.608801	0	0	0
	312	pv	-17.114685	10.016488	-11.608801	0	0	0
	313	pv	-17.114685	10.016488	-8.292	0	0	0
	314	pv	-17.114685	10.016488	-4.9752	0	0	0
	315	pv	-17.114685	10.016488	-1.6584	0	0	0
	316	pv	-17.114685	10.016488	1.6584	0	0	0
	317	pv	-17.114685	10.016488	4.9752	0	0	0
	318	pv	-17.114685	10.016488	8.292	0	0	0
	319	pv	-17.114685	10.016488	11.608801	0	0	0
	320	pv	-7.733486	-9.366511	-11.608801	0	0	0
	321	pv	-7.733486	-9.366511	-8.292	0	0	0
	322	pv	-7.733486	-9.366511	-4.9752	0	0	0
	323	pv	-7.733486	-9.366511	-1.6584	0	0	0
	324	pv	-7.733486	-9.366511	1.6584	0	0	0
	325	pv	-7.733486	-9.366511	4.9752	0	0	0
	326	pv	-7.733486	-9.366511	8.292	0	0	0
	327	pv	-7.733486	-9.366511	11.608801	0	0	0
	328	pv	-7.733486	-2.905512	-11.608801	0	0	0
	329	pv	-7.733486	-2.905512	-8.292	0	0	0
	330	pv	-7.733486	-2.905512	-4.9752	0	0	0
	331	pv	-7.733486	-2.905512	-1.6584	0	0	0
	332	pv	-7.733486	-2.905512	1.6584	0	0	0
	333	pv	-7.733486	-2.905512	4.9752	0	0	0
	334	pv	-7.733486	-2.905512	8.292	0	0	0
	335	pv	-7.733486	-2.905512	11.608801	0	0	0
	336	pv	-7.733486	3.555488	-11.608801	0	0	0
	337	pv	-7.733486	3.555488	-8.292	0	0	0
	338	pv	-7.733486	3.555488	-4.9752	0	0	0
	339	pv	-7.733486	3.555488	-1.6584	0	0	0
	340	pv	-7.733486	3.555488	1.6584	0	0	0
	341	pv	-7.733486	3.555488	4.9752	0	0	0
	342	pv	-7.733486	3.555488	8.292	0	0	0
	343	pv	-7.733486	3.555488	11.608801	0	0	0
	344	pv	-7.733486	10.016488	-11.608801	0	0	0
	345	pv	-7.733486	10.016488	-8.292	0	0	0
	346	pv	-7.733486	10.016488	-4.9752	0	0	0
	347	pv	-7.733486	10.016488	-1.6584	0	0	0
	348	pv	-7.733486	10.016488	1.6584	0	0	0
	349	pv	-7.733486	10.016488	4.9752	0	0	0
	350	pv	-7.733486	10.016488	8.292	0	0	0
	351	pv	-7.733486	10.016488	11.608801	0	0	0
	352	pv	1.647714	-9.366511	-11.608801	0	0	0
	353	pv	1.647714	-9.366511	-8.292	0	0	0
	354	pv	1.647714	-9.366511	-4.9752	0	0	0
	355	pv	1.647714	-9.366511	-1.6584	0	0	0
	356	pv	1.647714	-9.366511	1.6584	0	0	0
	357	pv	1.647714	-9.366511	4.9752	0	0	0
	358	pv	1.647714	-9.366511	8.292	0	0	0
	359	pv	1.647714	-9.366511	11.608801	0	0	0
	360	pv	1.647714	-2.905512	-11.608801	0	0	0
	361	pv	1.647714	-2.905512	-8.292	0	0	0
	362	pv	1.647714	-2.905512	-4.9752	0	0	0
	363	pv	1.647714	-2.905512	-1.6584	0	0	0
	364	pv	1.647714	-2.905512	1.6584	0	0	0
	365	pv	1.647714	-2.905512	4.9752	0	0	0
	366	pv	1.647714	-2.905512	8.292	0	0	0
	367	pv	1.647714	-2.905512	11.608801	0	0	0
	368	pv	1.647714	3.555488	-11.608801	0	0	0
	369	pv	1.647714	3.555488	-8.292	0	0	0
	370	pv	1.647714	3.555488	-4.9752	0	0	0
	371	pv	1.647714	3.555488	-1.6584	0	0	0
	372	pv	1.647714	3.555488	1.6584	0	0	0
	373	pv	1.647714	3.555488	4.9752	0	0	0
	374	pv	1.647714	3.555488	8.292	0	0	0
	375	pv	1.647714	3.555488	11.608801	0	0	0
	376	pv	1.647714	10.016488	-11.608801	0	0	0
	377	pv	1.647714	10.016488	-8.292	0	0	0
	378	pv	1.647714	10.016488	-4.9752	0	0	0
	379	pv	1.647714	10.016488	-1.6584	0	0	0
	380	pv	1.647714	10.016488	1.6584	0	0	0
	381	pv	1.647714	10.016488	4.9752	0	0	0
	382	pv	1.647714	10.016488	8.292	0	0	0
	383	pv	1.647714	10.016488	11.608801	0	0	0
	384	pv	-14.0718	-9.6915	-13.2672	0	0	0
	385	pv	-14.0718	-9.6915	-9.9504	0	0	0
	386	pv	-14.0718	-9.6915	-6.6336	0	0	0
	387	pv	-14.0718	-9.6915	-3.3168	0	0	0
	388	pv	-14.0718	-9.6915	0.0	0	0	0
	389	pv	-14.0718	-9.6915	3.3168	0	0	0
	390	pv	-14.0718	-9.6915	6.6336	0	0	0
	391	pv	-14.0718	-9.6915	9.9504	0	0	0
	392	pv	-14.0718	-3.2305	-13.2672	0	0	0
	393	pv	-14.0718	-3.2305	-9.9504	0	0	0
	394	pv	-14.0718	-3.2305	-6.6336	0	0	0
	395	pv	-14.0718	-3.2305	-3.3168	0	0	0
	396	pv	-14.0718	-3.2305	0.0	0	0	0
	397	pv	-14.0718	-3.2305	3.3168	0	0	0
	398	pv	-14.0718	-3.2305	6.6336	0	0	0
	399	pv	-14.0718	-3.2305	9.9504	0	0	0
	400	pv	-14.0718	3.2305	-13.2672	0	0	0
	401	pv	-14.0718	3.2305	-9.9504	0	0	0
	402	pv	-14.0718	3.2305	-6.6336	0	0	0
	403	pv	-14.0718	3.2305	-3.3168	0	0	0
	404	pv	-14.0718	3.2305	0.0	0	0	0
	405	pv	-14.0718	3.2305	3.3168	0	0	0
	406	pv	-14.0718	3.2305	6.6336	0	0	0
	407	pv	-14.0718	3.2305	9.9504	0	0	0
	408	pv	-14.0718	9.6915	-13.2672	0	0	0
	409	pv	-14.0718	9.6915	-9.9504	0	0	0
	410	pv	-14.0718	9.6915	-6.6336	0	0	0
	411	pv	-14.0718	9.6915	-3.3168	0	0	0
	412	pv	-14.0718	9.6915	0.0	0	0	0
	413	pv	-14.0718	9.6915	3.3168	0	0	0
	414	pv	-14.0718	9.6915	6.6336	0	0	0
	415	pv	-14.0718	9.6915	9.9504	0	0	0
	416	pv	-4.6906	-9.6915	-13.2672	0	0	0
	417	pv	-4.6906	-9.6915	-9.9504	0	0	0
	418	pv	-4.6906	-9.6915	-6.6336	0	0	0
	419	pv	-4.6906	-9.6915	-3.3168	0	0	0
	420	pv	-4.6906	-9.6915	0.0	0	0	0
	421	pv	-4.6906	-9.6915	3.3168	0	0	0
	422	pv	-4.6906	-9.6915	6.6336	0	0	0
	423	pv	-4.6906	-9.6915	9.9504	0	0	0
	424	pv	-4.6906	-3.2305	-13.2672	0	0	0
	425	pv	-4.6906	-3.2305	-9.9504	0	0	0
	426	pv	-4.6906	-3.2305	-6.6336	0	0	0
	427	pv	-4.6906	-3.2305	-3.3168	0	0	0
	428	pv	-4.6906	-3.2305	0.0	0	0	0
	429	pv	-4.6906	-3.2305	3.3168	0	0	0
	430	pv	-4.6906	-3.2305	6.6336	0	0	0
	431	pv	-4.6906	-3.2305	9.9504	0	0	0
	432	pv	-4.6906	3.2305	-13.2672	0	0	0
	433	pv	-4.6906	3.2305	-9.9504	0	0	0
	434	pv	-4.6906	3.2305	-6.6336	0	0	0
	435	pv	-4.6906	3.2305	-3.3168	0	0	0
	436	pv	-4.6906	3.2305	0.0	0	0	0
	437	pv	-4.6906	3.2305	3.3168	0	0	0
	438	pv	-4.6906	3.2305	6.6336	0	0	0
	439	pv	-4.6906	3.2305	9.9504	0	0	0
	440	pv	-4.6906	9.6915	-13.2672	0	0	0
	441	pv	-4.6906	9.6915	-9.9504	0	0	0
	442	pv	-4.6906	9.6915	-6.6336	0	0	0
	443	pv	-4.6906	9.6915	-3.3168	0	0	0
	444	pv	-4.6906	9.6915	0.0	0	0	0
	445	pv	-4.6906	9.6915	3.3168	0	0	0
	446	pv	-4.6906	9.6915	6.6336	0	0	0
	447	pv	-4.6906	9.6915	9.9504	0	0	0
	448	pv	4.6906	-9.6915	-13.2672	0	0	0
	449	pv	4.6906	-9.6915	-9.9504	0	0	0
	450	pv	4.6906	-9.6915	-6.6336	0	0	0
	451	pv	4.6906	-9.6915	-3.3168	0	0	0
	452	pv	4.6906	-9.6915	0.0	0	0	0
	453	pv	4.6906	-9.6915	3.3168	0	0	0
	454	pv	4.6906	-9.6915	6.6336	0	0	0
	455	pv	4.6906	-9.6915	9.9504	0	0	0
	456	pv	4.6906	-3.2305	-13.2672	0	0	0
	457	pv	4.6906	-3.2305	-9.9504	0	0	0
	458	pv	4.6906	-3.2305	-6.6336	0	0	0
	459	pv	4.6906	-3.2305	-3.3168	0	0	0
	460	pv	4.6906	-3.2305	0.0	0	0	0
	461	pv	4.6906	-3.2305	3.3168	0	0	0
	462	pv	4.6906	-3.2305	6.6336	0	0	0
	463	pv	4.6906	-3.2305	9.9504	0	0	0
	464	pv	4.6906	3.2305	-13.2672	0	0	0
	465	pv	4.6906	3.2305	-9.9504	0	0	0
	466	pv	4.6906	3.2305	-6.6336	0	0	0
	467	pv	4.6906	3.2305	-3.3168	0	0	0
	468	pv	4.6906	3.2305	0.0	0	0	0
	469	pv	4.6906	3.2305	3.3168	0	0	0
	470	pv	4.6906	3.2305	6.6336	0	0	0
	471	pv	4.6906	3.2305	9.9504	0	0	0
	472	pv	4.6906	9.6915	-13.2672	0	0	0
	473	pv	4.6906	9.6915	-9.9504	0	0	0
	474	pv	4.6906	9.6915	-6.6336	0	0	0
	475	pv	4.6906	9.6915	-3.3168	0	0	0
	476	pv	4.6906	9.6915	0.0	0	0	0
	477	pv	4.6906	9.6915	3.3168	0	0	0
	478	pv	4.6906	9.6915	6.6336	0	0	0
	479	pv	4.6906	9.6915	9.9504	0	0	0
	480	pv	-18.7624	-12.922	-13.2672	0	0	0
	481	pv	-18.7624	-12.922	-9.9504	0	0	0
	482	pv	-18.7624	-12.922	-6.6336	0	0	0
	483	pv	-18.7624	-12.922	-3.3168	0	0	0
	484	pv	-18.7624	-12.922	0.0	0	0	0
	485	pv	-18.7624	-12.922	3.3168	0	0	0
	486	pv	-18.7624	-12.922	6.6336	0	0	0
	487	pv	-18.7624	-12.922	9.9504	0	0	0
	488	pv	-18.7624	-6.461	-13.2672	0	0	0
	489	pv	-18.7624	-6.461	-9.9504	0	0	0
	490	pv	-18.7624	-6.461	-6.6336	0	0	0
	491	pv	-18.7624	-6.461	-3.3168	0	0	0
	492	pv	-18.7624	-6.461	0.0	0	0	0
	493	pv	-18.7624	-6.461	3.3168	0	0	0
	494	pv	-18.7624	-6.461	6.6336	0	0	0
	495	pv	-18.7624	-6.461	9.9504	0	0	0
	496	pv	-18.7624	-0.0	-13.2672	0	0	0
	497	pv	-18.7624	-0.0	-9.9504	0	0	0
	498	pv	-18.7624	-0.0	-6.6336	0	0	0
	499	pv	-18.7624	-0.0	-3.3168	0	0	0
	500	pv	-18.7624	0.0	0.0	0	0	0
	501	pv	-18.7624	0.0	3.3168	0	0	0
	502	pv	-18.7624	0.0	6.6336	0	0	0
	503	pv	-18.7624	0.0	9.9504	0	0	0
	504	pv	-18.7624	6.461	-13.2672	0	0	0
	505	pv	-18.7624	6.461	-9.9504	0	0	0
	506	pv	-18.7624	6.461	-6.6336	0	0	0
	507	pv	-18.7624	6.461	-3.3168	0	0	0
	508	pv	-18.7624	6.461	0.0	0	0	0
	509	pv	-18.7624	6.461	3.3168	0	0	0
	510	pv	-18.7624	6.461	6.6336	0	0	0
	511	pv	-18.7624	6.461	9.9504	0	0	0
	512	pv	-9.3812	-12.922	-13.2672	0	0	0
	513	pv	-9.3812	-12.922	-9.9504	0	0	0
	514	pv	-9.3812	-12.922	-6.6336	0	0	0
	515	pv	-9.3812	-12.922	-3.3168	0	0	0
	516	pv	-9.3812	-12.922	0.0	0	0	0
	517	pv	-9.3812	-12.922	3.3168	0	0	0
	518	pv	-9.3812	-12.922	6.6336	0	0	0
	519	pv	-9.3812	-12.922	9.9504	0	0	0
	520	pv	-9.3812	-6.461	-13.2672	0	0	0
	521	pv	-9.3812	-6.461	-9.9504	0	0	0
	522	pv	-9.3812	-6.461	-6.6336	0	0	0
	523	pv	-9.3812	-6.461	-3.3168	0	0	0
	524	pv	-9.3812	-6.461	0.0	0	0	0
	525	pv	-9.3812	-6.461	3.3168	0	0	0
	526	pv	-9.3812	-6.461	6.6336	0	0	0
	527	pv	-9.3812	-6.461	9.9504	0	0	0
	528	pv	-9.3812	-0.0	-13.2672	0	0	0
	529	pv	-9.3812	-0.0	-9.9504	0	0	0
	530	pv	-9.3812	-0.0	-6.6336	0	0	0
	531	pv	-9.3812	-0.0	-3.3168	0	0	0
	532	pv	-9.3812	0.0	0.0	0	0	0
	533	pv	-9.3812	0.0	3.3168	0	0	0
	534	pv	-9.3812	0.0	6.6336	0	0	0
	535	pv	-9.3812	0.0	9.9504	0	0	0
	536	pv	-9.3812	6.461	-13.2672	0	0	0
	537	pv	-9.3812	6.461	-9.9504	0	0	0
	538	pv	-9.3812	6.461	-6.6336	0	0	0
	539	pv	-9.3812	6.461	-3.3168	0	0	0
	540	pv	-9.3812	6.461	0.0	0	0	0
	541	pv	-9.3812	6.461	3.3168	0	0	0
	542	pv	-9.3812	6.461	6.6336	0	0	0
	543	pv	-9.3812	6.461	9.9504	0	0	0
	544	pv	-0.0	-12.922	-13.2672	0	0	0
	545	pv	-0.0	-12.922	-9.9504	0	0	0
	546	pv	-0.0	-12.922	-6.6336	0	0	0
	547	pv	-0.0	-12.922	-3.3168	0	0	0
	548	pv	-0.0	-12.922	0.0	0	0	0
	549	pv	-0.0	-12.922	3.3168	0	0	0
	550	pv	-0.0	-12.922	6.6336	0	0	0
	551	pv	-0.0	-12.922	9.9504	0	0	0
	552	pv	-0.0	-6.461	-13.2672	0	0	0
	553	pv	-0.0	-6.461	-9.9504	0	0	0
	554	pv	-0.0	-6.461	-6.6336	0	0	0
	555	pv	-0.0	-6.461	-3.3168	0	0	0
	556	pv	-0.0	-6.461	0.0	0	0	0
	557	pv	-0.0	-6.461	3.3168	0	0	0
	558	pv	0.0	-6.461	6.6336	0	0	0
	559	pv	0.0	-6.461	9.9504	0	0	0
	560	pv	-0.0	-0.0	-13.2672	0	0	0
	561	pv	-0.0	-0.0	-9.9504	0	0	0
	562	pv	-0.0	-0.0	-6.6336	0	0	0
	563	pv	-0.0	-0.0	-3.3168	0	0	0
	564	pv	0.0	0.0	0.0	0	0	0
	565	pv	0.0	0.0	3.3168	0	0	0
	566	pv	0.0	0.0	6.6336	0	0	0
	567	pv	0.0	0.0	9.9504	0	0	0
	568	pv	-0.0	6.461	-13.2672	0	0	0
	569	pv	-0.0	6.461	-9.9504	0	0	0
	570	pv	-0.0	6.461	-6.6336	0	0	0
	571	pv	0.0	6.461	-3.3168	0	0	0
	572	pv	0.0	6.461	0.0	0	0	0
	573	pv	0.0	6.461	3.3168	0	0	0
	574	pv	0.0	6.461	6.6336	0	0	0
	575	pv	0.0	6.461	9.9504	0	0	0
	576	pv	-15.824208	-10.974654	-13.2672	0	0	0
	577	pv	-15.824208	-10.974654	-9.9504	0	0	0
	578	pv	-15.824208	-10.974654	-6.6336	0	0	0
	579	pv	-15.824208	-10.974654	-3.3168	0	0	0
	580	pv	-15.824208	-10.974654	0.0	0	0	0
	581	pv	-15.824208	-10.974654	3.3168	0	0	0
	582	pv	-15.824208	-10.974654	6.6336	0	0	0
	583	pv	-15.824208	-10.974654	9.9504	0	0	0
	584	pv	-15.824208	-4.513655	-13.2672	0	0	0
	585	pv	-15.824208	-4.513655	-9.9504	0	0	0
	586	pv	-15.824208	-4.513655	-6.6336	0	0	0
	587	pv	-15.824208	-4.513655	-3.3168	0	0	0
	588	pv	-15.824208	-4.513655	0.0	0	0	0
	589	pv	-15.824208	-4.513655	3.3168	0	0	0
	590	pv	-15.824208	-4.513655	6.6336	0	0	0
	591	pv	-15.824208	-4.513655	9.9504	0	0	0
	592	pv	-15.824208	1.947345	-13.2672	0	0	0
	593	pv	-15.824208	1.947345	-9.9504	0	0	0
	594	pv	-15.824208	1.947345	-6.6336	0	0	0
	595	pv	-15.824208	1.947345	-3.3168	0	0	0
	596	pv	-15.824208	1.947345	0.0	0	0	0
	597	pv	-15.824208	1.947345	3.3168	0	0	0
	598	pv	-15.824208	1.947345	6.6336	0	0	0
	599	pv	-15.824208	1.947345	9.9504	0	0	0
	600	pv	-15.824208	8.408345	-13.2672	0	0	0
	601	pv	-15.824208	8.408345	-9.9504	0	0	0
	602	pv	-15.824208	8.408345	-6.6336	0	0	0
	603	pv	-15.824208	8.408345	-3.3168	0	0	0
	604	pv	-15.824208	8.408345	0.0	0	0	0
	605	pv	-15.824208	8.408345	3.3168	0	0	0
	606	pv	-15.824208	8.408345	6.6336	0	0	0
	607	pv	-15.824208	8.408345	9.9504	0	0	0
	608	pv	-6.443008	-10.974654	-13.2672	0	0	0
	609	pv	-6.443008	-10.974654	-9.9504	0	0	0
	610	pv	-6.443008	-10.974654	-6.6336	0	0	0
	611	pv	-6.443008	-10.974654	-3.3168	0	0	0
	612	pv	-6.443008	-10.974654	0.0	0	0	0
	613	pv	-6.443008	-10.974654	3.3168	0	0	0
	614	pv	-6.443008	-10.974654	6.6336	0	0	0
	615	pv	-6.443008	-10.974654	9.9504	0	0	0
	616	pv	-6.443008	-4.513655	-13.2672	0	0	0
	617	pv	-6.443008	-4.513655	-9.9504	0	0	0
	618	pv	-6.443008	-4.513655	-6.6336	0	0	0
	619	pv	-6.443008	-4.513655	-3.3168	0	0	0
	620	pv	-6.443008	-4.513655	0.0	0	0	0
	621	pv	-6.443008	-4.513655	3.3168	0	0	0
	622	pv	-6.443008	-4.513655	6.6336	0	0	0
	623	pv	-6.443008	-4.513655	9.9504	0	0	0
	624	pv	-6.443008	1.947345	-13.2672	0	0	0
	625	pv	-6.443008	1.947345	-9.9504	0	0	0
	626	pv	-6.443008	1.947345	-6.6336	0	0	0
	627	pv	-6.443008	1.947345	-3.3168	0	0	0
	628	pv	-6.443008	1.947345	0.0	0	0	0
	629	pv	-6.443008	1.947345	3.3168	0	0	0
	630	pv	-6.443008	1.947345	6.6336	0	0	0
	631	pv	-6.443008	1.947345	9.9504	0	0	0
	632	pv	-6.443008	8.408345	-13.2672	0	0	0
	633	pv	-6.443008	8.408345	-9.9504	0	0	0
	634	pv	-6.443008	8.408345	-6.6336	0	0	0
	635	pv	-6.443008	8.408345	-3.3168	0	0	0
	636	pv	-6.443008	8.408345	0.0	0	0	0
	637	pv	-6.443008	8.408345	3.3168	0	0	0
	638	pv	-6.443008	8.408345	6.6336	0	0	0
	639	pv	-6.443008	8.408345	9.9504	0	0	0
	640	pv	2.938192	-10.974654	-13.2672	0	0	0
	641	pv	2.938192	-10.974654	-9.9504	0	0	0
	642	pv	2.938192	-10.974654	-6.6336	0	0	0
	643	pv	2.938192	-10.974654	-3.3168	0	0	0
	644	pv	2.938192	-10.974654	0.0	0	0	0
	645	pv	2.938192	-10.974654	3.3168	0	0	0
	646	pv	2.938192	-10.974654	6.6336	0	0	0
	647	pv	2.938192	-10.974654	9.9504	0	0	0
	648	pv	2.938192	-4.513655	-13.2672	0	0	0
	649	pv	2.938192	-4.513655	-9.9504	0	0	0
	650	pv	2.938192	-4.513655	-6.6336	0	0	0
	651	pv	2.938192	-4.513655	-3.3168	0	0	0
	652	pv	2.938192	-4.513655	0.0	0	0	0
	653	pv	2.938192	-4.513655	3.3168	0	0	0
	654	pv	2.938192	-4.513655	6.6336	0	0	0
	655	pv	2.938192	-4.513655	9.9504	0	0	0
	656	pv	2.938192	1.947345	-13.2672	0	0	0
	657	pv	2.938192	1.947345	-9.9504	0	0	0
	658	pv	2.938192	1.947345	-6.6336	0	0	0
	659	pv	2.938192	1.947345	-3.3168	0	0	0
	660	pv	2.938192	1.947345	0.0	0	0	0
	661	pv	2.938192	1.947345	3.3168	0	0	0
	662	pv	2.938192	1.947345	6.6336	0	0	0
	663	pv	2.938192	1.947345	9.9504	0	0	0
	664	pv	2.938192	8.408345	-13.2672	0	0	0
	665	pv	2.938192	8.408345	-9.9504	0	0	0
	666	pv	2.938192	8.408345	-6.6336	0	0	0
	667	pv	2.938192	8.408345	-3.3168	0	0	0
	668	pv	2.938192	8.408345	0.0	0	0	0
	669	pv	2.938192	8.408345	3.3168	0	0	0
	670	pv	2.938192	8.408345	6.6336	0	0	0
	671	pv	2.938192	8.408345	9.9504	0	0	0
	672	pv	-12.319391	-8.408345	-13.2672	0	0	0
	673	pv	-12.319391	-8.408345	-9.9504	0	0	0
	674	pv	-12.319391	-8.408345	-6.6336	0	0	0
	675	pv	-12.319391	-8.408345	-3.3168	0	0	0
	676	pv	-12.319391	-8.408345	0.0	0	0	0
	677	pv	-12.319391	-8.408345	3.3168	0	0	0
	678	pv	-12.319391	-8.408345	6.6336	0	0	0
	679	pv	-12.319391	-8.408345	9.9504	0	0	0
	680	pv	-12.319391	-1.947345	-13.2672	0	0	0
	681	pv	-12.319391	-1.947345	-9.9504	0	0	0
	682	pv	-12.319391	-1.947345	-6.6336	0	0	0
	683	pv	-12.319391	-1.947345	-3.3168	0	0	0
	684	pv	-12.319391	-1.947345	0.0	0	0	0
	685	pv	-12.319391	-1.947345	3.3168	0	0	0
	686	pv	-12.319391	-1.947345	6.6336	0	0	0
	687	pv	-12.319391	-1.947345	9.9504	0	0	0
	688	pv	-12.319391	4.513655	-13.2672	0	0	0
	689	pv	-12.319391	4.513655	-9.9504	0	0	0
	690	pv	-12.319391	4.513655	-6.6336	0	0	0
	691	pv	-12.319391	4.513655	-3.3168	0	0	0
	692	pv	-12.319391	4.513655	0.0	0	0	0
	693	pv	-12.319391	4.513655	3.3168	0	0	0
	694	pv	-12.319391	4.513655	6.6336	0	0	0
	695	pv	-12.319391	4.513655	9.9504	0	0	0
	696	pv	-12.319391	10.974655	-13.2672	0	0	0
	697	pv	-12.319391	10.974655	-9.9504	0	0	0
	698	pv	-12.319391	10.974655	-6.6336	0	0	0
	699	pv	-12.319391	10.974655	-3.3168	0	0	0
	700	pv	-12.319391	10.974655	0.0	0	0	0
	701	pv	-12.319391	10.974655	3.3168	0	0	0
	702	pv	-12.319391	10.974655	6.6336	0	0	0
	703	pv	-12.319391	10.974655	9.9504	0	0	0
	704	pv	-2.938192	-8.408345	-13.2672	0	0	0
	705	pv	-2.938192	-8.408345	-9.9504	0	0	0
	706	pv	-2.938192	-8.408345	-6.6336	0	0	0
	707	pv	-2.938192	-8.408345	-3.3168	0	0	0
	708	pv	-2.938192	-8.408345	0.0	0	0	0
	709	pv	-2.938192	-8.408345	3.3168	0	0	0
	710	pv	-2.938192	-8.408345	6.6336	0	0	0
	711	pv	-2.938192	-8.408345	9.9504	0	0	0
	712	pv	-2.938192	-1.947345	-13.2672	0	0	0
	713	pv	-2.938192	-1.947345	-9.9504	0	0	0
	714	pv	-2.938192	-1.947345	-6.6336	0	0	0
	715	pv	-2.938192	-1.947345	-3.3168	0	0	0
	716	pv	-2.938192	-1.947345	0.0	0	0	0
	717	pv	-2.938192	-1.947345	3.3168	0	0	0
	718	pv	-2.938192	-1.947345	6.6336	0	0	0
	719	pv	-2.938192	-1.947345	9.9504	0	0	0
	720	pv	-2.938192	4.513655	-13.2672	0	0	0
	721	pv	-2.938192	4.513655	-9.9504	0	0	0
	722	pv	-2.938192	4.513655	-6.6336	0	0	0