<OpenMD version=1>
  <MetaData>
  
molecule{
  name = "Pb";
  
  atom[0]{
     type="Pb_FQ";
     position( 0.0, 0.0, 0.0 );
  }
}
molecule{
  name = "O";
  
  atom[0]{
     type="O_FQ";
     position( 0.0, 0.0, 0.0 );
  }
}

component{
  type = "O";
  nMol = 1296;
}
component{
  type = "Pb";
  nMol = 648;
}
flucQ {
  propagator = "Damped";
  targetTemp = 1;
  dragCoefficient = 1;
  doInitialOptimization = false;
}

forceField = "DR-EAM";
forceFieldFileName = "DR-EAM.v2.frc";

outputFluctuatingCharges = true;
outputElectricField = true;
outputDensity = true;

ensemble = NVE;
dt = 0.1;
runTime = 1;
sampleTime = 0.1;
statusTime = 0.1;


cutoffMethod = "shifted_force";
cutoffRadius = 12;
electrostaticScreeningMethod = "DAMPED";
dampingAlpha = 0.105;

statFileFormat = "TIME|TOTAL_ENERGY|POTENTIAL_ENERGY|KINETIC_ENERGY|TEMPERATURE|PRESSURE|VOLUME|CONSERVED_QUANTITY|SYSTEM_DIPOLE";

  </MetaData>
  <Snapshot>
    <FrameData>
        Time: 0
        Hmat: {{ 29.7462, 0, 0 }, { 0, 29.7462, 0 }, { 0, 0, 30.4911 }}
  Thermostat: 0, 0
    Barostat: {{ 0, 0, 0 }, { 0, 0, 0 }, { 0, 0, 0 }}
    </FrameData>
    <StuntDoubles>
	0	pv	0.955800	-4.001900	-1.694000	0 0 0
	1	pv	0.955800	-4.001900	-5.081900	0 0 0
	2	pv	0.955800	-4.001900	-8.469800	0 0 0
	3	pv	0.955800	-4.001900	-11.857700	0 0 0
	4	pv	0.955800	-4.001900	-15.245600	0 0 0
	5	pv	0.955800	-4.001900	-18.633500	0 0 0
	6	pv	0.955800	-4.001900	-22.021400	0 0 0
	7	pv	0.955800	-4.001900	-25.409300	0 0 0
	8	pv	0.955800	-4.001900	-28.797200	0 0 0
	9	pv	0.955800	-8.959600	-1.694000	0 0 0
	10	pv	0.955800	-8.959600	-5.081900	0 0 0
	11	pv	0.955800	-8.959600	-8.469800	0 0 0
	12	pv	0.955800	-8.959600	-11.857700	0 0 0
	13	pv	0.955800	-8.959600	-15.245600	0 0 0
	14	pv	0.955800	-8.959600	-18.633500	0 0 0
	15	pv	0.955800	-8.959600	-22.021400	0 0 0
	16	pv	0.955800	-8.959600	-25.409300	0 0 0
	17	pv	0.955800	-8.959600	-28.797200	0 0 0
	18	pv	0.955800	-13.917300	-1.694000	0 0 0
	19	pv	0.955800	-13.917300	-5.081900	0 0 0
	20	pv	0.955800	-13.917300	-8.469800	0 0 0
	21	pv	0.955800	-13.917300	-11.857700	0 0 0
	22	pv	0.955800	-13.917300	-15.245600	0 0 0
	23	pv	0.955800	-13.917300	-18.633500	0 0 0
	24	pv	0.955800	-13.917300	-22.021400	0 0 0
	25	pv	0.955800	-13.917300	-25.409300	0 0 0
	26	pv	0.955800	-13.917300	-28.797200	0 0 0
	27	pv	0.955800	-18.875000	-1.694000	0 0 0
	28	pv	0.955800	-18.875000	-5.081900	0 0 0
	29	pv	0.955800	-18.875000	-8.469800	0 0 0
	30	pv	0.955800	-18.875000	-11.857700	0 0 0
	31	pv	0.955800	-18.875000	-15.245600	0 0 0
	32	pv	0.955800	-18.875000	-18.633500	0 0 0
	33	pv	0.955800	-18.875000	-22.021400	0 0 0
	34	pv	0.955800	-18.875000	-25.409300	0 0 0
	35	pv	0.955800	-18.875000	-28.797200	0 0 0
	36	pv	0.955800	-23.832700	-1.694000	0 0 0
	37	pv	0.955800	-23.832700	-5.081900	0 0 0
	38	pv	0.955800	-23.832700	-8.469800	0 0 0
	39	pv	0.955800	-23.832700	-11.857700	0 0 0
	40	pv	0.955800	-23.832700	-15.245600	0 0 0
	41	pv	0.955800	-23.832700	-18.633500	0 0 0
	42	pv	0.955800	-23.832700	-22.021400	0 0 0
	43	pv	0.955800	-23.832700	-25.409300	0 0 0
	44	pv	0.955800	-23.832700	-28.797200	0 0 0
	45	pv	0.955800	-28.790400	-1.694000	0 0 0
	46	pv	0.955800	-28.790400	-5.081900	0 0 0
	47	pv	0.955800	-28.790400	-8.469800	0 0 0
	48	pv	0.955800	-28.790400	-11.857700	0 0 0
	49	pv	0.955800	-28.790400	-15.245600	0 0 0
	50	pv	0.955800	-28.790400	-18.633500	0 0 0
	51	pv	0.955800	-28.790400	-22.021400	0 0 0
	52	pv	0.955800	-28.790400	-25.409300	0 0 0
	53	pv	0.955800	-28.790400	-28.797200	0 0 0
	54	pv	1.523000	-1.523000	-0.000000	0 0 0
	55	pv	1.523000	-1.523000	-3.387900	0 0 0
	56	pv	1.523000	-1.523000	-6.775800	0 0 0
	57	pv	1.523000	-1.523000	-10.163700	0 0 0
	58	pv	1.523000	-1.523000	-13.551600	0 0 0
	59	pv	1.523000	-1.523000	-16.939500	0 0 0
	60	pv	1.523000	-1.523000	-20.327400	0 0 0
	61	pv	1.523000	-1.523000	-23.715300	0 0 0
	62	pv	1.523000	-1.523000	-27.103200	0 0 0
	63	pv	1.523000	-6.480700	-0.000000	0 0 0
	64	pv	1.523000	-6.480700	-3.387900	0 0 0
	65	pv	1.523000	-6.480700	-6.775800	0 0 0
	66	pv	1.523000	-6.480700	-10.163700	0 0 0
	67	pv	1.523000	-6.480700	-13.551600	0 0 0
	68	pv	1.523000	-6.480700	-16.939500	0 0 0
	69	pv	1.523000	-6.480700	-20.327400	0 0 0
	70	pv	1.523000	-6.480700	-23.715300	0 0 0
	71	pv	1.523000	-6.480700	-27.103200	0 0 0
	72	pv	1.523000	-11.438400	-0.000000	0 0 0
	73	pv	1.523000	-11.438400	-3.387900	0 0 0
	74	pv	1.523000	-11.438400	-6.775800	0 0 0
	75	pv	1.523000	-11.438400	-10.163700	0 0 0
	76	pv	1.523000	-11.438400	-13.551600	0 0 0
	77	pv	1.523000	-11.438400	-16.939500	0 0 0
	78	pv	1.523000	-11.438400	-20.327400	0 0 0
	79	pv	1.523000	-11.438400	-23.715300	0 0 0
	80	pv	1.523000	-11.438400	-27.103200	0 0 0
	81	pv	1.523000	-16.396100	-0.000000	0 0 0
	82	pv	1.523000	-16.396100	-3.387900	0 0 0
	83	pv	1.523000	-16.396100	-6.775800	0 0 0
	84	pv	1.523000	-16.396100	-10.163700	0 0 0
	85	pv	1.523000	-16.396100	-13.551600	0 0 0
	86	pv	1.523000	-16.396100	-16.939500	0 0 0
	87	pv	1.523000	-16.396100	-20.327400	0 0 0
	88	pv	1.523000	-16.396100	-23.715300	0 0 0
	89	pv	1.523000	-16.396100	-27.103200	0 0 0
	90	pv	1.523000	-21.353800	-0.000000	0 0 0
	91	pv	1.523000	-21.353800	-3.387900	0 0 0
	92	pv	1.523000	-21.353800	-6.775800	0 0 0
	93	pv	1.523000	-21.353800	-10.163700	0 0 0
	94	pv	1.523000	-21.353800	-13.551600	0 0 0
	95	pv	1.523000	-21.353800	-16.939500	0 0 0
	96	pv	1.523000	-21.353800	-20.327400	0 0 0
	97	pv	1.523000	-21.353800	-23.715300	0 0 0
	98	pv	1.523000	-21.353800	-27.103200	0 0 0
	99	pv	1.523000	-26.311500	-0.000000	0 0 0
	100	pv	1.523000	-26.311500	-3.387900	0 0 0
	101	pv	1.523000	-26.311500	-6.775800	0 0 0
	102	pv	1.523000	-26.311500	-10.163700	0 0 0
	103	pv	1.523000	-26.311500	-13.551600	0 0 0
	104	pv	1.523000	-26.311500	-16.939500	0 0 0
	105	pv	1.523000	-26.311500	-20.327400	0 0 0
	106	pv	1.523000	-26.311500	-23.715300	0 0 0
	107	pv	1.523000	-26.311500	-27.103200	0 0 0
	108	pv	3.434700	-3.434700	-0.000000	0 0 0
	109	pv	3.434700	-3.434700	-3.387900	0 0 0
	110	pv	3.434700	-3.434700	-6.775800	0 0 0
	111	pv	3.434700	-3.434700	-10.163700	0 0 0
	112	pv	3.434700	-3.434700	-13.551600	0 0 0
	113	pv	3.434700	-3.434700	-16.939500	0 0 0
	114	pv	3.434700	-3.434700	-20.327400	0 0 0
	115	pv	3.434700	-3.434700	-23.715300	0 0 0
	116	pv	3.434700	-3.434700	-27.103200	0 0 0
	117	pv	3.434700	-8.392400	-0.000000	0 0 0
	118	pv	3.434700	-8.392400	-3.387900	0 0 0
	119	pv	3.434700	-8.392400	-6.775800	0 0 0
	120	pv	3.434700	-8.392400	-10.163700	0 0 0
	121	pv	3.434700	-8.392400	-13.551600	0 0 0
	122	pv	3.434700	-8.392400	-16.939500	0 0 0
	123	pv	3.434700	-8.392400	-20.327400	0 0 0
	124	pv	3.434700	-8.392400	-23.715300	0 0 0
	125	pv	3.434700	-8.392400	-27.103200	0 0 0
	126	pv	3.434700	-13.350100	-0.000000	0 0 0
	127	pv	3.434700	-13.350100	-3.387900	0 0 0
	128	pv	3.434700	-13.350100	-6.775800	0 0 0
	129	pv	3.434700	-13.350100	-10.163700	0 0 0
	130	pv	3.434700	-13.350100	-13.551600	0 0 0
	131	pv	3.434700	-13.350100	-16.939500	0 0 0
	132	pv	3.434700	-13.350100	-20.327400	0 0 0
	133	pv	3.434700	-13.350100	-23.715300	0 0 0
	134	pv	3.434700	-13.350100	-27.103200	0 0 0
	135	pv	3.434700	-18.307800	-0.000000	0 0 0
	136	pv	3.434700	-18.307800	-3.387900	0 0 0
	137	pv	3.434700	-18.307800	-6.775800	0 0 0
	138	pv	3.434700	-18.307800	-10.163700	0 0 0
	139	pv	3.434700	-18.307800	-13.551600	0 0 0
	140	pv	3.434700	-18.307800	-16.939500	0 0 0
	141	pv	3.434700	-18.307800	-20.327400	0 0 0
	142	pv	3.434700	-18.307800	-23.715300	0 0 0
	143	pv	3.434700	-18.307800	-27.103200	0 0 0
	144	pv	3.434700	-23.265500	-0.000000	0 0 0
	145	pv	3.434700	-23.265500	-3.387900	0 0 0
	146	pv	3.434700	-23.265500	-6.775800	0 0 0
	147	pv	3.434700	-23.265500	-10.163700	0 0 0
	148	pv	3.434700	-23.265500	-13.551600	0 0 0
	149	pv	3.434700	-23.265500	-16.939500	0 0 0
	150	pv	3.434700	-23.265500	-20.327400	0 0 0
	151	pv	3.434700	-23.265500	-23.715300	0 0 0
	152	pv	3.434700	-23.265500	-27.103200	0 0 0
	153	pv	3.434700	-28.223200	-0.000000	0 0 0
	154	pv	3.434700	-28.223200	-3.387900	0 0 0
	155	pv	3.434700	-28.223200	-6.775800	0 0 0
	156	pv	3.434700	-28.223200	-10.163700	0 0 0
	157	pv	3.434700	-28.223200	-13.551600	0 0 0
	158	pv	3.434700	-28.223200	-16.939500	0 0 0
	159	pv	3.434700	-28.223200	-20.327400	0 0 0
	160	pv	3.434700	-28.223200	-23.715300	0 0 0
	161	pv	3.434700	-28.223200	-27.103200	0 0 0
	162	pv	4.001900	-0.955800	-1.694000	0 0 0
	163	pv	4.001900	-0.955800	-5.081900	0 0 0
	164	pv	4.001900	-0.955800	-8.469800	0 0 0
	165	pv	4.001900	-0.955800	-11.857700	0 0 0
	166	pv	4.001900	-0.955800	-15.245600	0 0 0
	167	pv	4.001900	-0.955800	-18.633500	0 0 0
	168	pv	4.001900	-0.955800	-22.021400	0 0 0
	169	pv	4.001900	-0.955800	-25.409300	0 0 0
	170	pv	4.001900	-0.955800	-28.797200	0 0 0
	171	pv	4.001900	-5.913500	-1.694000	0 0 0
	172	pv	4.001900	-5.913500	-5.081900	0 0 0
	173	pv	4.001900	-5.913500	-8.469800	0 0 0
	174	pv	4.001900	-5.913500	-11.857700	0 0 0
	175	pv	4.001900	-5.913500	-15.245600	0 0 0
	176	pv	4.001900	-5.913500	-18.633500	0 0 0
	177	pv	4.001900	-5.913500	-22.021400	0 0 0
	178	pv	4.001900	-5.913500	-25.409300	0 0 0
	179	pv	4.001900	-5.913500	-28.797200	0 0 0
	180	pv	4.001900	-10.871200	-1.694000	0 0 0
	181	pv	4.001900	-10.871200	-5.081900	0 0 0
	182	pv	4.001900	-10.871200	-8.469800	0 0 0
	183	pv	4.001900	-10.871200	-11.857700	0 0 0
	184	pv	4.001900	-10.871200	-15.245600	0 0 0
	185	pv	4.001900	-10.871200	-18.633500	0 0 0
	186	pv	4.001900	-10.871200	-22.021400	0 0 0
	187	pv	4.001900	-10.871200	-25.409300	0 0 0
	188	pv	4.001900	-10.871200	-28.797200	0 0 0
	189	pv	4.001900	-15.828900	-1.694000	0 0 0
	190	pv	4.001900	-15.828900	-5.081900	0 0 0
	191	pv	4.001900	-15.828900	-8.469800	0 0 0
	192	pv	4.001900	-15.828900	-11.857700	0 0 0
	193	pv	4.001900	-15.828900	-15.245600	0 0 0
	194	pv	4.001900	-15.828900	-18.633500	0 0 0
	195	pv	4.001900	-15.828900	-22.021400	0 0 0
	196	pv	4.001900	-15.828900	-25.409300	0 0 0
	197	pv	4.001900	-15.828900	-28.797200	0 0 0
	198	pv	4.001900	-20.786600	-1.694000	0 0 0
	199	pv	4.001900	-20.786600	-5.081900	0 0 0
	200	pv	4.001900	-20.786600	-8.469800	0 0 0
	201	pv	4.001900	-20.786600	-11.857700	0 0 0
	202	pv	4.001900	-20.786600	-15.245600	0 0 0
	203	pv	4.001900	-20.786600	-18.633500	0 0 0
	204	pv	4.001900	-20.786600	-22.021400	0 0 0
	205	pv	4.001900	-20.786600	-25.409300	0 0 0
	206	pv	4.001900	-20.786600	-28.797200	0 0 0
	207	pv	4.001900	-25.744300	-1.694000	0 0 0
	208	pv	4.001900	-25.744300	-5.081900	0 0 0
	209	pv	4.001900	-25.744300	-8.469800	0 0 0
	210	pv	4.001900	-25.744300	-11.857700	0 0 0
	211	pv	4.001900	-25.744300	-15.245600	0 0 0
	212	pv	4.001900	-25.744300	-18.633500	0 0 0
	213	pv	4.001900	-25.744300	-22.021400	0 0 0
	214	pv	4.001900	-25.744300	-25.409300	0 0 0
	215	pv	4.001900	-25.744300	-28.797200	0 0 0
	216	pv	5.913500	-4.001900	-1.694000	0 0 0
	217	pv	5.913500	-4.001900	-5.081900	0 0 0
	218	pv	5.913500	-4.001900	-8.469800	0 0 0
	219	pv	5.913500	-4.001900	-11.857700	0 0 0
	220	pv	5.913500	-4.001900	-15.245600	0 0 0
	221	pv	5.913500	-4.001900	-18.633500	0 0 0
	222	pv	5.913500	-4.001900	-22.021400	0 0 0
	223	pv	5.913500	-4.001900	-25.409300	0 0 0
	224	pv	5.913500	-4.001900	-28.797200	0 0 0
	225	pv	5.913500	-8.959600	-1.694000	0 0 0
	226	pv	5.913500	-8.959600	-5.081900	0 0 0
	227	pv	5.913500	-8.959600	-8.469800	0 0 0
	228	pv	5.913500	-8.959600	-11.857700	0 0 0
	229	pv	5.913500	-8.959600	-15.245600	0 0 0
	230	pv	5.913500	-8.959600	-18.633500	0 0 0
	231	pv	5.913500	-8.959600	-22.021400	0 0 0
	232	pv	5.913500	-8.959600	-25.409300	0 0 0
	233	pv	5.913500	-8.959600	-28.797200	0 0 0
	234	pv	5.913500	-13.917300	-1.694000	0 0 0
	235	pv	5.913500	-13.917300	-5.081900	0 0 0
	236	pv	5.913500	-13.917300	-8.469800	0 0 0
	237	pv	5.913500	-13.917300	-11.857700	0 0 0
	238	pv	5.913500	-13.917300	-15.245600	0 0 0
	239	pv	5.913500	-13.917300	-18.633500	0 0 0
	240	pv	5.913500	-13.917300	-22.021400	0 0 0
	241	pv	5.913500	-13.917300	-25.409300	0 0 0
	242	pv	5.913500	-13.917300	-28.797200	0 0 0
	243	pv	5.913500	-18.875000	-1.694000	0 0 0
	244	pv	5.913500	-18.875000	-5.081900	0 0 0
	245	pv	5.913500	-18.875000	-8.469800	0 0 0
	246	pv	5.913500	-18.875000	-11.857700	0 0 0
	247	pv	5.913500	-18.875000	-15.245600	0 0 0
	248	pv	5.913500	-18.875000	-18.633500	0 0 0
	249	pv	5.913500	-18.875000	-22.021400	0 0 0
	250	pv	5.913500	-18.875000	-25.409300	0 0 0
	251	pv	5.913500	-18.875000	-28.797200	0 0 0
	252	pv	5.913500	-23.832700	-1.694000	0 0 0
	253	pv	5.913500	-23.832700	-5.081900	0 0 0
	254	pv	5.913500	-23.832700	-8.469800	0 0 0
	255	pv	5.913500	-23.832700	-11.857700	0 0 0
	256	pv	5.913500	-23.832700	-15.245600	0 0 0
	257	pv	5.913500	-23.832700	-18.633500	0 0 0
	258	pv	5.913500	-23.832700	-22.021400	0 0 0
	259	pv	5.913500	-23.832700	-25.409300	0 0 0
	260	pv	5.913500	-23.832700	-28.797200	0 0 0
	261	pv	5.913500	-28.790400	-1.694000	0 0 0
	262	pv	5.913500	-28.790400	-5.081900	0 0 0
	263	pv	5.913500	-28.790400	-8.469800	0 0 0
	264	pv	5.913500	-28.790400	-11.857700	0 0 0
	265	pv	5.913500	-28.790400	-15.245600	0 0 0
	266	pv	5.913500	-28.790400	-18.633500	0 0 0
	267	pv	5.913500	-28.790400	-22.021400	0 0 0
	268	pv	5.913500	-28.790400	-25.409300	0 0 0
	269	pv	5.913500	-28.790400	-28.797200	0 0 0
	270	pv	6.480700	-1.523000	-0.000000	0 0 0
	271	pv	6.480700	-1.523000	-3.387900	0 0 0
	272	pv	6.480700	-1.523000	-6.775800	0 0 0
	273	pv	6.480700	-1.523000	-10.163700	0 0 0
	274	pv	6.480700	-1.523000	-13.551600	0 0 0
	275	pv	6.480700	-1.523000	-16.939500	0 0 0
	276	pv	6.480700	-1.523000	-20.327400	0 0 0
	277	pv	6.480700	-1.523000	-23.715300	0 0 0
	278	pv	6.480700	-1.523000	-27.103200	0 0 0
	279	pv	6.480700	-6.480700	-0.000000	0 0 0
	280	pv	6.480700	-6.480700	-3.387900	0 0 0
	281	pv	6.480700	-6.480700	-6.775800	0 0 0
	282	pv	6.480700	-6.480700	-10.163700	0 0 0
	283	pv	6.480700	-6.480700	-13.551600	0 0 0
	284	pv	6.480700	-6.480700	-16.939500	0 0 0
	285	pv	6.480700	-6.480700	-20.327400	0 0 0
	286	pv	6.480700	-6.480700	-23.715300	0 0 0
	287	pv	6.480700	-6.480700	-27.103200	0 0 0
	288	pv	6.480700	-11.438400	-0.000000	0 0 0
	289	pv	6.480700	-11.438400	-3.387900	0 0 0
	290	pv	6.480700	-11.438400	-6.775800	0 0 0
	291	pv	6.480700	-11.438400	-10.163700	0 0 0
	292	pv	6.480700	-11.438400	-13.551600	0 0 0
	293	pv	6.480700	-11.438400	-16.939500	0 0 0
	294	pv	6.480700	-11.438400	-20.327400	0 0 0
	295	pv	6.480700	-11.438400	-23.715300	0 0 0
	296	pv	6.480700	-11.438400	-27.103200	0 0 0
	297	pv	6.480700	-16.396100	-0.000000	0 0 0
	298	pv	6.480700	-16.396100	-3.387900	0 0 0
	299	pv	6.480700	-16.396100	-6.775800	0 0 0
	300	pv	6.480700	-16.396100	-10.163700	0 0 0
	301	pv	6.480700	-16.396100	-13.551600	0 0 0
	302	pv	6.480700	-16.396100	-16.939500	0 0 0
	303	pv	6.480700	-16.396100	-20.327400	0 0 0
	304	pv	6.480700	-16.396100	-23.715300	0 0 0
	305	pv	6.480700	-16.396100	-27.103200	0 0 0
	306	pv	6.480700	-21.353800	-0.000000	0 0 0
	307	pv	6.480700	-21.353800	-3.387900	0 0 0
	308	pv	6.480700	-21.353800	-6.775800	0 0 0
	309	pv	6.480700	-21.353800	-10.163700	0 0 0
	310	pv	6.480700	-21.353800	-13.551600	0 0 0
	311	pv	6.480700	-21.353800	-16.939500	0 0 0
	312	pv	6.480700	-21.353800	-20.327400	0 0 0
	313	pv	6.480700	-21.353800	-23.715300	0 0 0
	314	pv	6.480700	-21.353800	-27.103200	0 0 0
	315	pv	6.480700	-26.311500	-0.000000	0 0 0
	316	pv	6.480700	-26.311500	-3.387900	0 0 0
	317	pv	6.480700	-26.311500	-6.775800	0 0 0
	318	pv	6.480700	-26.311500	-10.163700	0 0 0
	319	pv	6.480700	-26.311500	-13.551600	0 0 0
	320	pv	6.480700	-26.311500	-16.939500	0 0 0
	321	pv	6.480700	-26.311500	-20.327400	0 0 0
	322	pv	6.480700	-26.311500	-23.715300	0 0 0
	323	pv	6.480700	-26.311500	-27.103200	0 0 0
	324	pv	8.392400	-3.434700	-0.000000	0 0 0
	325	pv	8.392400	-3.434700	-3.387900	0 0 0
	326	pv	8.392400	-3.434700	-6.775800	0 0 0
	327	pv	8.392400	-3.434700	-10.163700	0 0 0
	328	pv	8.392400	-3.434700	-13.551600	0 0 0
	329	pv	8.392400	-3.434700	-16.939500	0 0 0
	330	pv	8.392400	-3.434700	-20.327400	0 0 0
	331	pv	8.392400	-3.434700	-23.715300	0 0 0
	332	pv	8.392400	-3.434700	-27.103200	0 0 0
	333	pv	8.392400	-8.392400	-0.000000	0 0 0
	334	pv	8.392400	-8.392400	-3.387900	0 0 0
	335	pv	8.392400	-8.392400	-6.775800	0 0 0
	336	pv	8.392400	-8.392400	-10.163700	0 0 0
	337	pv	8.392400	-8.392400	-13.551600	0 0 0
	338	pv	8.392400	-8.392400	-16.939500	0 0 0
	339	pv	8.392400	-8.392400	-20.327400	0 0 0
	340	pv	8.392400	-8.392400	-23.715300	0 0 0
	341	pv	8.392400	-8.392400	-27.103200	0 0 0
	342	pv	8.392400	-13.350100	-0.000000	0 0 0
	343	pv	8.392400	-13.350100	-3.387900	0 0 0
	344	pv	8.392400	-13.350100	-6.775800	0 0 0
	345	pv	8.392400	-13.350100	-10.163700	0 0 0
	346	pv	8.392400	-13.350100	-13.551600	0 0 0
	347	pv	8.392400	-13.350100	-16.939500	0 0 0
	348	pv	8.392400	-13.350100	-20.327400	0 0 0
	349	pv	8.392400	-13.350100	-23.715300	0 0 0
	350	pv	8.392400	-13.350100	-27.103200	0 0 0
	351	pv	8.392400	-18.307800	-0.000000	0 0 0
	352	pv	8.392400	-18.307800	-3.387900	0 0 0
	353	pv	8.392400	-18.307800	-6.775800	0 0 0
	354	pv	8.392400	-18.307800	-10.163700	0 0 0
	355	pv	8.392400	-18.307800	-13.551600	0 0 0
	356	pv	8.392400	-18.307800	-16.939500	0 0 0
	357	pv	8.392400	-18.307800	-20.327400	0 0 0
	358	pv	8.392400	-18.307800	-23.715300	0 0 0
	359	pv	8.392400	-18.307800	-27.103200	0 0 0
	360	pv	8.392400	-23.265500	-0.000000	0 0 0
	361	pv	8.392400	-23.265500	-3.387900	0 0 0
	362	pv	8.392400	-23.265500	-6.775800	0 0 0
	363	pv	8.392400	-23.265500	-10.163700	0 0 0
	364	pv	8.392400	-23.265500	-13.551600	0 0 0
	365	pv	8.392400	-23.265500	-16.939500	0 0 0
	366	pv	8.392400	-23.265500	-20.327400	0 0 0
	367	pv	8.392400	-23.265500	-23.715300	0 0 0
	368	pv	8.392400	-23.265500	-27.103200	0 0 0
	369	pv	8.392400	-28.223200	-0.000000	0 0 0
	370	pv	8.392400	-28.223200	-3.387900	0 0 0
	371	pv	8.392400	-28.223200	-6.775800	0 0 0
	372	pv	8.392400	-28.223200	-10.163700	0 0 0
	373	pv	8.392400	-28.223200	-13.551600	0 0 0
	374	pv	8.392400	-28.223200	-16.939500	0 0 0
	375	pv	8.392400	-28.223200	-20.327400	0 0 0
	376	pv	8.392400	-28.223200	-23.715300	0 0 0
	377	pv	8.392400	-28.223200	-27.103200	0 0 0
	378	pv	8.959600	-0.955800	-1.694000	0 0 0
	379	pv	8.959600	-0.955800	-5.081900	0 0 0
	380	pv	8.959600	-0.955800	-8.469800	0 0 0
	381	pv	8.959600	-0.955800	-11.857700	0 0 0
	382	pv	8.959600	-0.955800	-15.245600	0 0 0
	383	pv	8.959600	-0.955800	-18.633500	0 0 0
	384	pv	8.959600	-0.955800	-22.021400	0 0 0
	385	pv	8.959600	-0.955800	-25.409300	0 0 0
	386	pv	8.959600	-0.955800	-28.797200	0 0 0
	387	pv	8.959600	-5.913500	-1.694000	0 0 0
	388	pv	8.959600	-5.913500	-5.081900	0 0 0
	389	pv	8.959600	-5.913500	-8.469800	0 0 0
	390	pv	8.959600	-5.913500	-11.857700	0 0 0
	391	pv	8.959600	-5.913500	-15.245600	0 0 0
	392	pv	8.959600	-5.913500	-18.633500	0 0 0
	393	pv	8.959600	-5.913500	-22.021400	0 0 0
	394	pv	8.959600	-5.913500	-25.409300	0 0 0
	395	pv	8.959600	-5.913500	-28.797200	0 0 0
	396	pv	8.959600	-10.871200	-1.694000	0 0 0
	397	pv	8.959600	-10.871200	-5.081900	0 0 0
	398	pv	8.959600	-10.871200	-8.469800	0 0 0
	399	pv	8.959600	-10.871200	-11.857700	0 0 0
	400	pv	8.959600	-10.871200	-15.245600	0 0 0
	401	pv	8.959600	-10.871200	-18.633500	0 0 0
	402	pv	8.959600	-10.871200	-22.021400	0 0 0
	403	pv	8.959600	-10.871200	-25.409300	0 0 0
	404	pv	8.959600	-10.871200	-28.797200	0 0 0
	405	pv	8.959600	-15.828900	-1.694000	0 0 0
	406	pv	8.959600	-15.828900	-5.081900	0 0 0
	407	pv	8.959600	-15.828900	-8.469800	0 0 0
	408	pv	8.959600	-15.828900	-11.857700	0 0 0
	409	pv	8.959600	-15.828900	-15.245600	0 0 0
	410	pv	8.959600	-15.828900	-18.633500	0 0 0
	411	pv	8.959600	-15.828900	-22.021400	0 0 0
	412	pv	8.959600	-15.828900	-25.409300	0 0 0
	413	pv	8.959600	-15.828900	-28.797200	0 0 0
	414	pv	8.959600	-20.786600	-1.694000	0 0 0
	415	pv	8.959600	-20.786600	-5.081900	0 0 0
	416	pv	8.959600	-20.786600	-8.469800	0 0 0
	417	pv	8.959600	-20.786600	-11.857700	0 0 0
	418	pv	8.959600	-20.786600	-15.245600	0 0 0
	419	pv	8.959600	-20.786600	-18.633500	0 0 0
	420	pv	8.959600	-20.786600	-22.021400	0 0 0
	421	pv	8.959600	-20.786600	-25.409300	0 0 0
	422	pv	8.959600	-20.786600	-28.797200	0 0 0
	423	pv	8.959600	-25.744300	-1.694000	0 0 0
	424	pv	8.959600	-25.744300	-5.081900	0 0 0
	425	pv	8.959600	-25.744300	-8.469800	0 0 0
	426	pv	8.959600	-25.744300	-11.857700	0 0 0
	427	pv	8.959600	-25.744300	-15.245600	0 0 0
	428	pv	8.959600	-25.744300	-18.633500	0 0 0
	429	pv	8.959600	-25.744300	-22.021400	0 0 0
	430	pv	8.959600	-25.744300	-25.409300	0 0 0
	431	pv	8.959600	-25.744300	-28.797200	0 0 0
	432	pv	10.871200	-4.001900	-1.694000	0 0 0
	433	pv	10.871200	-4.001900	-5.081900	0 0 0
	434	pv	10.871200	-4.001900	-8.469800	0 0 0
	435	pv	10.871200	-4.001900	-11.857700	0 0 0
	436	pv	10.871200	-4.001900	-15.245600	0 0 0
	437	pv	10.871200	-4.001900	-18.633500	0 0 0
	438	pv	10.871200	-4.001900	-22.021400	0 0 0
	439	pv	10.871200	-4.001900	-25.409300	0 0 0
	440	pv	10.871200	-4.001900	-28.797200	0 0 0
	441	pv	10.871200	-8.959600	-1.694000	0 0 0
	442	pv	10.871200	-8.959600	-5.081900	0 0 0
	443	pv	10.871200	-8.959600	-8.469800	0 0 0
	444	pv	10.871200	-8.959600	-11.857700	0 0 0
	445	pv	10.871200	-8.959600	-15.245600	0 0 0
	446	pv	10.871200	-8.959600	-18.633500	0 0 0
	447	pv	10.871200	-8.959600	-22.021400	0 0 0
	448	pv	10.871200	-8.959600	-25.409300	0 0 0
	449	pv	10.871200	-8.959600	-28.797200	0 0 0
	450	pv	10.871200	-13.917300	-1.694000	0 0 0
	451	pv	10.871200	-13.917300	-5.081900	0 0 0
	452	pv	10.871200	-13.917300	-8.469800	0 0 0
	453	pv	10.871200	-13.917300	-11.857700	0 0 0
	454	pv	10.871200	-13.917300	-15.245600	0 0 0
	455	pv	10.871200	-13.917300	-18.633500	0 0 0
	456	pv	10.871200	-13.917300	-22.021400	0 0 0
	457	pv	10.871200	-13.917300	-25.409300	0 0 0
	458	pv	10.871200	-13.917300	-28.797200	0 0 0
	459	pv	10.871200	-18.875000	-1.694000	0 0 0
	460	pv	10.871200	-18.875000	-5.081900	0 0 0
	461	pv	10.871200	-18.875000	-8.469800	0 0 0
	462	pv	10.871200	-18.875000	-11.857700	0 0 0
	463	pv	10.871200	-18.875000	-15.245600	0 0 0
	464	pv	10.871200	-18.875000	-18.633500	0 0 0
	465	pv	10.871200	-18.875000	-22.021400	0 0 0
	466	pv	10.871200	-18.875000	-25.409300	0 0 0
	467	pv	10.871200	-18.875000	-28.797200	0 0 0
	468	pv	10.871200	-23.832700	-1.694000	0 0 0
	469	pv	10.871200	-23.832700	-5.081900	0 0 0
	470	pv	10.871200	-23.832700	-8.469800	0 0 0
	471	pv	10.871200	-23.832700	-11.857700	0 0 0
	472	pv	10.871200	-23.832700	-15.245600	0 0 0
	473	pv	10.871200	-23.832700	-18.633500	0 0 0
	474	pv	10.871200	-23.832700	-22.021400	0 0 0
	475	pv	10.871200	-23.832700	-25.409300	0 0 0
	476	pv	10.871200	-23.832700	-28.797200	0 0 0
	477	pv	10.871200	-28.790400	-1.694000	0 0 0
	478	pv	10.871200	-28.790400	-5.081900	0 0 0
	479	pv	10.871200	-28.790400	-8.469800	0 0 0
	480	pv	10.871200	-28.790400	-11.857700	0 0 0
	481	pv	10.871200	-28.790400	-15.245600	0 0 0
	482	pv	10.871200	-28.790400	-18.633500	0 0 0
	483	pv	10.871200	-28.790400	-22.021400	0 0 0
	484	pv	10.871200	-28.790400	-25.409300	0 0 0
	485	pv	10.871200	-28.790400	-28.797200	0 0 0
	486	pv	11.438400	-1.523000	-0.000000	0 0 0
	487	pv	11.438400	-1.523000	-3.387900	0 0 0
	488	pv	11.438400	-1.523000	-6.775800	0 0 0
	489	pv	11.438400	-1.523000	-10.163700	0 0 0
	490	pv	11.438400	-1.523000	-13.551600	0 0 0
	491	pv	11.438400	-1.523000	-16.939500	0 0 0
	492	pv	11.438400	-1.523000	-20.327400	0 0 0
	493	pv	11.438400	-1.523000	-23.715300	0 0 0
	494	pv	11.438400	-1.523000	-27.103200	0 0 0
	495	pv	11.438400	-6.480700	-0.000000	0 0 0
	496	pv	11.438400	-6.480700	-3.387900	0 0 0
	497	pv	11.438400	-6.480700	-6.775800	0 0 0
	498	pv	11.438400	-6.480700	-10.163700	0 0 0
	499	pv	11.438400	-6.480700	-13.551600	0 0 0
	500	pv	11.438400	-6.480700	-16.939500	0 0 0
	501	pv	11.438400	-6.480700	-20.327400	0 0 0
	502	pv	11.438400	-6.480700	-23.715300	0 0 0
	503	pv	11.438400	-6.480700	-27.103200	0 0 0
	504	pv	11.438400	-11.438400	-0.000000	0 0 0
	505	pv	11.438400	-11.438400	-3.387900	0 0 0
	506	pv	11.438400	-11.438400	-6.775800	0 0 0
	507	pv	11.438400	-11.438400	-10.163700	0 0 0
	508	pv	11.438400	-11.438400	-13.551600	0 0 0
	509	pv	11.438400	-11.438400	-16.939500	0 0 0
	510	pv	11.438400	-11.438400	-20.327400	0 0 0
	511	pv	11.438400	-11.438400	-23.715300	0 0 0
	512	pv	11.438400	-11.438400	-27.103200	0 0 0
	513	pv	11.438400	-16.396100	-0.000000	0 0 0
	514	pv	11.438400	-16.396100	-3.387900	0 0 0
	515	pv	11.438400	-16.396100	-6.775800	0 0 0
	516	pv	11.438400	-16.396100	-10.163700	0 0 0
	517	pv	11.438400	-16.396100	-13.551600	0 0 0
	518	pv	11.438400	-16.396100	-16.939500	0 0 0
	519	pv	11.438400	-16.396100	-20.327400	0 0 0
	520	pv	11.438400	-16.396100	-23.715300	0 0 0
	521	pv	11.438400	-16.396100	-27.103200	0 0 0
	522	pv	11.438400	-21.353800	-0.000000	0 0 0
	523	pv	11.438400	-21.353800	-3.387900	0 0 0
	524	pv	11.438400	-21.353800	-6.775800	0 0 0
	525	pv	11.438400	-21.353800	-10.163700	0 0 0
	526	pv	11.438400	-21.353800	-13.551600	0 0 0
	527	pv	11.438400	-21.353800	-16.939500	0 0 0
	528	pv	11.438400	-21.353800	-20.327400	0 0 0
	529	pv	11.438400	-21.353800	-23.715300	0 0 0
	530	pv	11.438400	-21.353800	-27.103200	0 0 0
	531	pv	11.438400	-26.311500	-0.000000	0 0 0
	532	pv	11.438400	-26.311500	-3.387900	0 0 0
	533	pv	11.438400	-26.311500	-6.775800	0 0 0
	534	pv	11.438400	-26.311500	-10.163700	0 0 0
	535	pv	11.438400	-26.311500	-13.551600	0 0 0
	536	pv	11.438400	-26.311500	-16.939500	0 0 0
	537	pv	11.438400	-26.311500	-20.327400	0 0 0
	538	pv	11.438400	-26.311500	-23.715300	0 0 0
	539	pv	11.438400	-26.311500	-27.103200	0 0 0
	540	pv	13.350100	-3.434700	-0.000000	0 0 0
	541	pv	13.350100	-3.434700	-3.387900	0 0 0
	542	pv	13.350100	-3.434700	-6.775800	0 0 0
	543	pv	13.350100	-3.434700	-10.163700	0 0 0
	544	pv	13.350100	-3.434700	-13.551600	0 0 0
	545	pv	13.350100	-3.434700	-16.939500	0 0 0
	546	pv	13.350100	-3.434700	-20.327400	0 0 0
	547	pv	13.350100	-3.434700	-23.715300	0 0 0
	548	pv	13.350100	-3.434700	-27.103200	0 0 0
	549	pv	13.350100	-8.392400	-0.000000	0 0 0
	550	pv	13.350100	-8.392400	-3.387900	0 0 0
	551	pv	13.350100	-8.392400	-6.775800	0 0 0
	552	pv	13.350100	-8.392400	-10.163700	0 0 0
	553	pv	13.350100	-8.392400	-13.551600	0 0 0
	554	pv	13.350100	-8.392400	-16.939500	0 0 0
	555	pv	13.350100	-8.392400	-20.327400	0 0 0
	556	pv	13.350100	-8.392400	-23.715300	0 0 0
	557	pv	13.350100	-8.392400	-27.103200	0 0 0
	558	pv	13.350100	-13.350100	-0.000000	0 0 0
	559	pv	13.350100	-13.350100	-3.387900	0 0 0
	560	pv	13.350100	-13.350100	-6.775800	0 0 0
	561	pv	13.350100	-13.350100	-10.163700	0 0 0
	562	pv	13.350100	-13.350100	-13.551600	0 0 0
	563	pv	13.350100	-13.350100	-16.939500	0 0 0
	564	pv	13.350100	-13.350100	-20.327400	0 0 0
	565	pv	13.350100	-13.350100	-23.715300	0 0 0
	566	pv	13.350100	-13.350100	-27.103200	0 0 0
	567	pv	13.350100	-18.307800	-0.000000	0 0 0
	568	pv	13.350100	-18.307800	-3.387900	0 0 0
	569	pv	13.350100	-18.307800	-6.775800	0 0 0
	570	pv	13.350100	-18.307800	-10.163700	0 0 0
	571	pv	13.350100	-18.307800	-13.551600	0 0 0
	572	pv	13.350100	-18.307800	-16.939500	0 0 0
	573	pv	13.350100	-18.307800	-20.327400	0 0 0
	574	pv	13.350100	-18.307800	-23.715300	0 0 0
	575	pv	13.350100	-18.307800	-27.103200	0 0 0
	576	pv	13.350100	-23.265500	-0.000000	0 0 0
	577	pv	13.350100	-23.265500	-3.387900	0 0 0
	578	pv	13.350100	-23.265500	-6.775800	0 0 0
	579	pv	13.350100	-23.265500	-10.163700	0 0 0
	580	pv	13.350100	-23.265500	-13.551600	0 0 0
	581	pv	13.350100	-23.265500	-16.939500	0 0 0
	582	pv	13.350100	-23.265500	-20.327400	0 0 0
	583	pv	13.350100	-23.265500	-23.715300	0 0 0
	584	pv	13.350100	-23.265500	-27.103200	0 0 0
	585	pv	13.350100	-28.223200	-0.000000	0 0 0
	586	pv	13.350100	-28.223200	-3.387900	0 0 0
	587	pv	13.350100	-28.223200	-6.775800	0 0 0
	588	pv	13.350100	-28.223200	-10.163700	0 0 0
	589	pv	13.350100	-28.223200	-13.551600	0 0 0
	590	pv	13.350100	-28.223200	-16.939500	0 0 0
	591	pv	13.350100	-28.223200	-20.327400	0 0 0
	592	pv	13.350100	-28.223200	-23.715300	0 0 0
	593	pv	13.350100	-28.223200	-27.103200	0 0 0
	594	pv	13.917300	-0.955800	-1.694000	0 0 0
	595	pv	13.917300	-0.955800	-5.081900	0 0 0
	596	pv	13.917300	-0.955800	-8.469800	0 0 0
	597	pv	13.917300	-0.955800	-11.857700	0 0 0
	598	pv	13.917300	-0.955800	-15.245600	0 0 0
	599	pv	13.917300	-0.955800	-18.633500	0 0 0
	600	pv	13.917300	-0.955800	-22.021400	0 0 0
	601	pv	13.917300	-0.955800	-25.409300	0 0 0
	602	pv	13.917300	-0.955800	-28.797200	0 0 0
	603	pv	13.917300	-5.913500	-1.694000	0 0 0
	604	pv	13.917300	-5.913500	-5.081900	0 0 0
	605	pv	13.917300	-5.913500	-8.469800	0 0 0
	606	pv	13.917300	-5.913500	-11.857700	0 0 0
	607	pv	13.917300	-5.913500	-15.245600	0 0 0
	608	pv	13.917300	-5.913500	-18.633500	0 0 0
	609	pv	13.917300	-5.913500	-22.021400	0 0 0
	610	pv	13.917300	-5.913500	-25.409300	0 0 0
	611	pv	13.917300	-5.913500	-28.797200	0 0 0
	612	pv	13.917300	-10.871200	-1.694000	0 0 0
	613	pv	13.917300	-10.871200	-5.081900	0 0 0
	614	pv	13.917300	-10.871200	-8.469800	0 0 0
	615	pv	13.917300	-10.871200	-11.857700	0 0 0
	616	pv	13.917300	-10.871200	-15.245600	0 0 0
	617	pv	13.917300	-10.871200	-18.633500	0 0 0
	618	pv	13.917300	-10.871200	-22.021400	0 0 0
	619	pv	13.917300	-10.871200	-25.409300	0 0 0
	620	pv	13.917300	-10.871200	-28.797200	0 0 0
	621	pv	13.917300	-15.828900	-1.694000	0 0 0
	622	pv	13.917300	-15.828900	-5.081900	0 0 0
	623	pv	13.917300	-15.828900	-8.469800	0 0 0
	624	pv	13.917300	-15.828900	-11.857700	0 0 0
	625	pv	13.917300	-15.828900	-15.245600	0 0 0
	626	pv	13.917300	-15.828900	-18.633500	0 0 0
	627	pv	13.917300	-15.828900	-22.021400	0 0 0
	628	pv	13.917300	-15.828900	-25.409300	0 0 0
	629	pv	13.917300	-15.828900	-28.797200	0 0 0
	630	pv	13.917300	-20.786600	-1.694000	0 0 0
	631	pv	13.917300	-20.786600	-5.081900	0 0 0
	632	pv	13.917300	-20.786600	-8.469800	0 0 0
	633	pv	13.917300	-20.786600	-11.857700	0 0 0
	634	pv	13.917300	-20.786600	-15.245600	0 0 0
	635	pv	13.917300	-20.786600	-18.633500	0 0 0
	636	pv	13.917300	-20.786600	-22.021400	0 0 0
	637	pv	13.917300	-20.786600	-25.409300	0 0 0
	638	pv	13.917300	-20.786600	-28.797200	0 0 0
	639	pv	13.917300	-25.744300	-1.694000	0 0 0
	640	pv	13.917300	-25.744300	-5.081900	0 0 0
	641	pv	13.917300	-25.744300	-8.469800	0 0 0
	642	pv	13.917300	-25.744300	-11.857700	0 0 0
	643	pv	13.917300	-25.744300	-15.245600	0 0 0
	644	pv	13.917300	-25.744300	-18.633500	0 0 0
	645	pv	13.917300	-25.744300	-22.021400	0 0 0
	646	pv	13.917300	-25.744300	-25.409300	0 0 0
	647	pv	13.917300	-25.744300	-28.797200	0 0 0