<OpenMD version=1>
  <MetaData>

molecule{
  name = "Pd";

  atom[0]{
    type="Pd_FQ";
    position( 0.0, 0.0, 0.0 );
  }
}

molecule{
  name = "O";

  atom[0]{
    type="O_FQ";
    position( 0.0, 0.0, 0.0 );
  }
}

component{
  type = "Pd";
  nMol = 1134;
}
component{
  type = "O";
  nMol = 1134;
}

forceField = "DR-EAM";
forceFieldFileName = "DR-EAM.v2.frc";

outputFluctuatingCharges = true;
outputElectricField = true;
outputDensity = true;

ensemble = NVT;
dt = 0.1;
runTime = 1;
sampleTime = 1;
statusTime = 1;
targetTemp = 10;
tauThermostat = 100;

cutoffMethod = "shifted_force";
cutoffRadius = 12;
electrostaticScreeningMethod = "DAMPED";
dampingAlpha = 0.105;

statFileFormat = "TIME|TOTAL_ENERGY|POTENTIAL_ENERGY|KINETIC_ENERGY|TEMPERATURE|PRESSURE|VOLUME|CONSERVED_QUANTITY|SYSTEM_DIPOLE";

  </MetaData>
  <Snapshot>
    <FrameData>
        Time: 0
        Hmat: {{ 27.86356, 0, 0 }, { 0, 27.86356, 0 }, { 0, 0, 38.096096 }}
  Thermostat: 0 , 0
    Barostat: {{ 0, 0, 0 }, { 0, 0, 0 }, { 0, 0, 0 }}
    </FrameData>
    <StuntDoubles>
	0	pv	-12.383804	-10.835829	-13.605749	0	0	0
	1	pv	-12.383804	-10.835829	-8.163449	0	0	0
	2	pv	-12.383804	-10.835829	-2.72115	0	0	0
	3	pv	-12.383804	-10.835829	2.72115	0	0	0
	4	pv	-12.383804	-10.835829	8.163449	0	0	0
	5	pv	-12.383804	-10.835829	13.605748	0	0	0
	6	pv	-12.383804	-10.835829	19.048048	0	0	0
	7	pv	-12.383804	-7.739878	-13.605749	0	0	0
	8	pv	-12.383804	-7.739878	-8.163449	0	0	0
	9	pv	-12.383804	-7.739878	-2.72115	0	0	0
	10	pv	-12.383804	-7.739878	2.72115	0	0	0
	11	pv	-12.383804	-7.739878	8.163449	0	0	0
	12	pv	-12.383804	-7.739878	13.605748	0	0	0
	13	pv	-12.383804	-7.739878	19.048048	0	0	0
	14	pv	-12.383804	-4.643927	-13.605749	0	0	0
	15	pv	-12.383804	-4.643927	-8.163449	0	0	0
	16	pv	-12.383804	-4.643927	-2.72115	0	0	0
	17	pv	-12.383804	-4.643927	2.72115	0	0	0
	18	pv	-12.383804	-4.643927	8.163449	0	0	0
	19	pv	-12.383804	-4.643927	13.605748	0	0	0
	20	pv	-12.383804	-4.643927	19.048048	0	0	0
	21	pv	-12.383804	-1.547976	-13.605749	0	0	0
	22	pv	-12.383804	-1.547976	-8.163449	0	0	0
	23	pv	-12.383804	-1.547976	-2.72115	0	0	0
	24	pv	-12.383804	-1.547976	2.72115	0	0	0
	25	pv	-12.383804	-1.547976	8.163449	0	0	0
	26	pv	-12.383804	-1.547976	13.605748	0	0	0
	27	pv	-12.383804	-1.547976	19.048048	0	0	0
	28	pv	-12.383804	1.547976	-13.605749	0	0	0
	29	pv	-12.383804	1.547976	-8.163449	0	0	0
	30	pv	-12.383804	1.547976	-2.72115	0	0	0
	31	pv	-12.383804	1.547976	2.72115	0	0	0
	32	pv	-12.383804	1.547976	8.163449	0	0	0
	33	pv	-12.383804	1.547976	13.605748	0	0	0
	34	pv	-12.383804	1.547976	19.048048	0	0	0
	35	pv	-12.383804	4.643927	-13.605749	0	0	0
	36	pv	-12.383804	4.643927	-8.163449	0	0	0
	37	pv	-12.383804	4.643927	-2.72115	0	0	0
	38	pv	-12.383804	4.643927	2.72115	0	0	0
	39	pv	-12.383804	4.643927	8.163449	0	0	0
	40	pv	-12.383804	4.643927	13.605748	0	0	0
	41	pv	-12.383804	4.643927	19.048048	0	0	0
	42	pv	-12.383804	7.739878	-13.605749	0	0	0
	43	pv	-12.383804	7.739878	-8.163449	0	0	0
	44	pv	-12.383804	7.739878	-2.72115	0	0	0
	45	pv	-12.383804	7.739878	2.72115	0	0	0
	46	pv	-12.383804	7.739878	8.163449	0	0	0
	47	pv	-12.383804	7.739878	13.605748	0	0	0
	48	pv	-12.383804	7.739878	19.048048	0	0	0
	49	pv	-12.383804	10.835829	-13.605749	0	0	0
	50	pv	-12.383804	10.835829	-8.163449	0	0	0
	51	pv	-12.383804	10.835829	-2.72115	0	0	0
	52	pv	-12.383804	10.835829	2.72115	0	0	0
	53	pv	-12.383804	10.835829	8.163449	0	0	0
	54	pv	-12.383804	10.835829	13.605748	0	0	0
	55	pv	-12.383804	10.835829	19.048048	0	0	0
	56	pv	-12.383804	13.93178	-13.605749	0	0	0
	57	pv	-12.383804	13.93178	-8.163449	0	0	0
	58	pv	-12.383804	13.93178	-2.72115	0	0	0
	59	pv	-12.383804	13.93178	2.72115	0	0	0
	60	pv	-12.383804	13.93178	8.163449	0	0	0
	61	pv	-12.383804	13.93178	13.605748	0	0	0
	62	pv	-12.383804	13.93178	19.048048	0	0	0
	63	pv	-9.287853	-10.835829	-13.605749	0	0	0
	64	pv	-9.287853	-10.835829	-8.163449	0	0	0
	65	pv	-9.287853	-10.835829	-2.72115	0	0	0
	66	pv	-9.287853	-10.835829	2.72115	0	0	0
	67	pv	-9.287853	-10.835829	8.163449	0	0	0
	68	pv	-9.287853	-10.835829	13.605748	0	0	0
	69	pv	-9.287853	-10.835829	19.048048	0	0	0
	70	pv	-9.287853	-7.739878	-13.605749	0	0	0
	71	pv	-9.287853	-7.739878	-8.163449	0	0	0
	72	pv	-9.287853	-7.739878	-2.72115	0	0	0
	73	pv	-9.287853	-7.739878	2.72115	0	0	0
	74	pv	-9.287853	-7.739878	8.163449	0	0	0
	75	pv	-9.287853	-7.739878	13.605748	0	0	0
	76	pv	-9.287853	-7.739878	19.048048	0	0	0
	77	pv	-9.287853	-4.643927	-13.605749	0	0	0
	78	pv	-9.287853	-4.643927	-8.163449	0	0	0
	79	pv	-9.287853	-4.643927	-2.72115	0	0	0
	80	pv	-9.287853	-4.643927	2.72115	0	0	0
	81	pv	-9.287853	-4.643927	8.163449	0	0	0
	82	pv	-9.287853	-4.643927	13.605748	0	0	0
	83	pv	-9.287853	-4.643927	19.048048	0	0	0
	84	pv	-9.287853	-1.547976	-13.605749	0	0	0
	85	pv	-9.287853	-1.547976	-8.163449	0	0	0
	86	pv	-9.287853	-1.547976	-2.72115	0	0	0
	87	pv	-9.287853	-1.547976	2.72115	0	0	0
	88	pv	-9.287853	-1.547976	8.163449	0	0	0
	89	pv	-9.287853	-1.547976	13.605748	0	0	0
	90	pv	-9.287853	-1.547976	19.048048	0	0	0
	91	pv	-9.287853	1.547976	-13.605749	0	0	0
	92	pv	-9.287853	1.547976	-8.163449	0	0	0
	93	pv	-9.287853	1.547976	-2.72115	0	0	0
	94	pv	-9.287853	1.547976	2.72115	0	0	0
	95	pv	-9.287853	1.547976	8.163449	0	0	0
	96	pv	-9.287853	1.547976	13.605748	0	0	0
	97	pv	-9.287853	1.547976	19.048048	0	0	0
	98	pv	-9.287853	4.643927	-13.605749	0	0	0
	99	pv	-9.287853	4.643927	-8.163449	0	0	0
	100	pv	-9.287853	4.643927	-2.72115	0	0	0
	101	pv	-9.287853	4.643927	2.72115	0	0	0
	102	pv	-9.287853	4.643927	8.163449	0	0	0
	103	pv	-9.287853	4.643927	13.605748	0	0	0
	104	pv	-9.287853	4.643927	19.048048	0	0	0
	105	pv	-9.287853	7.739878	-13.605749	0	0	0
	106	pv	-9.287853	7.739878	-8.163449	0	0	0
	107	pv	-9.287853	7.739878	-2.72115	0	0	0
	108	pv	-9.287853	7.739878	2.72115	0	0	0
	109	pv	-9.287853	7.739878	8.163449	0	0	0
	110	pv	-9.287853	7.739878	13.605748	0	0	0
	111	pv	-9.287853	7.739878	19.048048	0	0	0
	112	pv	-9.287853	10.835829	-13.605749	0	0	0
	113	pv	-9.287853	10.835829	-8.163449	0	0	0
	114	pv	-9.287853	10.835829	-2.72115	0	0	0
	115	pv	-9.287853	10.835829	2.72115	0	0	0
	116	pv	-9.287853	10.835829	8.163449	0	0	0
	117	pv	-9.287853	10.835829	13.605748	0	0	0
	118	pv	-9.287853	10.835829	19.048048	0	0	0
	119	pv	-9.287853	13.93178	-13.605749	0	0	0
	120	pv	-9.287853	13.93178	-8.163449	0	0	0
	121	pv	-9.287853	13.93178	-2.72115	0	0	0
	122	pv	-9.287853	13.93178	2.72115	0	0	0
	123	pv	-9.287853	13.93178	8.163449	0	0	0
	124	pv	-9.287853	13.93178	13.605748	0	0	0
	125	pv	-9.287853	13.93178	19.048048	0	0	0
	126	pv	-6.191902	-10.835829	-13.605749	0	0	0
	127	pv	-6.191902	-10.835829	-8.163449	0	0	0
	128	pv	-6.191902	-10.835829	-2.72115	0	0	0
	129	pv	-6.191902	-10.835829	2.72115	0	0	0
	130	pv	-6.191902	-10.835829	8.163449	0	0	0
	131	pv	-6.191902	-10.835829	13.605748	0	0	0
	132	pv	-6.191902	-10.835829	19.048048	0	0	0
	133	pv	-6.191902	-7.739878	-13.605749	0	0	0
	134	pv	-6.191902	-7.739878	-8.163449	0	0	0
	135	pv	-6.191902	-7.739878	-2.72115	0	0	0
	136	pv	-6.191902	-7.739878	2.72115	0	0	0
	137	pv	-6.191902	-7.739878	8.163449	0	0	0
	138	pv	-6.191902	-7.739878	13.605748	0	0	0
	139	pv	-6.191902	-7.739878	19.048048	0	0	0
	140	pv	-6.191902	-4.643927	-13.605749	0	0	0
	141	pv	-6.191902	-4.643927	-8.163449	0	0	0
	142	pv	-6.191902	-4.643927	-2.72115	0	0	0
	143	pv	-6.191902	-4.643927	2.72115	0	0	0
	144	pv	-6.191902	-4.643927	8.163449	0	0	0
	145	pv	-6.191902	-4.643927	13.605748	0	0	0
	146	pv	-6.191902	-4.643927	19.048048	0	0	0
	147	pv	-6.191902	-1.547976	-13.605749	0	0	0
	148	pv	-6.191902	-1.547976	-8.163449	0	0	0
	149	pv	-6.191902	-1.547976	-2.72115	0	0	0
	150	pv	-6.191902	-1.547976	2.72115	0	0	0
	151	pv	-6.191902	-1.547976	8.163449	0	0	0
	152	pv	-6.191902	-1.547976	13.605748	0	0	0
	153	pv	-6.191902	-1.547976	19.048048	0	0	0
	154	pv	-6.191902	1.547976	-13.605749	0	0	0
	155	pv	-6.191902	1.547976	-8.163449	0	0	0
	156	pv	-6.191902	1.547976	-2.72115	0	0	0
	157	pv	-6.191902	1.547976	2.72115	0	0	0
	158	pv	-6.191902	1.547976	8.163449	0	0	0
	159	pv	-6.191902	1.547976	13.605748	0	0	0
	160	pv	-6.191902	1.547976	19.048048	0	0	0
	161	pv	-6.191902	4.643927	-13.605749	0	0	0
	162	pv	-6.191902	4.643927	-8.163449	0	0	0
	163	pv	-6.191902	4.643927	-2.72115	0	0	0
	164	pv	-6.191902	4.643927	2.72115	0	0	0
	165	pv	-6.191902	4.643927	8.163449	0	0	0
	166	pv	-6.191902	4.643927	13.605748	0	0	0
	167	pv	-6.191902	4.643927	19.048048	0	0	0
	168	pv	-6.191902	7.739878	-13.605749	0	0	0
	169	pv	-6.191902	7.739878	-8.163449	0	0	0
	170	pv	-6.191902	7.739878	-2.72115	0	0	0
	171	pv	-6.191902	7.739878	2.72115	0	0	0
	172	pv	-6.191902	7.739878	8.163449	0	0	0
	173	pv	-6.191902	7.739878	13.605748	0	0	0
	174	pv	-6.191902	7.739878	19.048048	0	0	0
	175	pv	-6.191902	10.835829	-13.605749	0	0	0
	176	pv	-6.191902	10.835829	-8.163449	0	0	0
	177	pv	-6.191902	10.835829	-2.72115	0	0	0
	178	pv	-6.191902	10.835829	2.72115	0	0	0
	179	pv	-6.191902	10.835829	8.163449	0	0	0
	180	pv	-6.191902	10.835829	13.605748	0	0	0
	181	pv	-6.191902	10.835829	19.048048	0	0	0
	182	pv	-6.191902	13.93178	-13.605749	0	0	0
	183	pv	-6.191902	13.93178	-8.163449	0	0	0
	184	pv	-6.191902	13.93178	-2.72115	0	0	0
	185	pv	-6.191902	13.93178	2.72115	0	0	0
	186	pv	-6.191902	13.93178	8.163449	0	0	0
	187	pv	-6.191902	13.93178	13.605748	0	0	0
	188	pv	-6.191902	13.93178	19.048048	0	0	0
	189	pv	-3.095951	-10.835829	-13.605749	0	0	0
	190	pv	-3.095951	-10.835829	-8.163449	0	0	0
	191	pv	-3.095951	-10.835829	-2.72115	0	0	0
	192	pv	-3.095951	-10.835829	2.72115	0	0	0
	193	pv	-3.095951	-10.835829	8.163449	0	0	0
	194	pv	-3.095951	-10.835829	13.605748	0	0	0
	195	pv	-3.095951	-10.835829	19.048048	0	0	0
	196	pv	-3.095951	-7.739878	-13.605749	0	0	0
	197	pv	-3.095951	-7.739878	-8.163449	0	0	0
	198	pv	-3.095951	-7.739878	-2.72115	0	0	0
	199	pv	-3.095951	-7.739878	2.72115	0	0	0
	200	pv	-3.095951	-7.739878	8.163449	0	0	0
	201	pv	-3.095951	-7.739878	13.605748	0	0	0
	202	pv	-3.095951	-7.739878	19.048048	0	0	0
	203	pv	-3.095951	-4.643927	-13.605749	0	0	0
	204	pv	-3.095951	-4.643927	-8.163449	0	0	0
	205	pv	-3.095951	-4.643927	-2.72115	0	0	0
	206	pv	-3.095951	-4.643927	2.72115	0	0	0
	207	pv	-3.095951	-4.643927	8.163449	0	0	0
	208	pv	-3.095951	-4.643927	13.605748	0	0	0
	209	pv	-3.095951	-4.643927	19.048048	0	0	0
	210	pv	-3.095951	-1.547976	-13.605749	0	0	0
	211	pv	-3.095951	-1.547976	-8.163449	0	0	0
	212	pv	-3.095951	-1.547976	-2.72115	0	0	0
	213	pv	-3.095951	-1.547976	2.72115	0	0	0
	214	pv	-3.095951	-1.547976	8.163449	0	0	0
	215	pv	-3.095951	-1.547976	13.605748	0	0	0
	216	pv	-3.095951	-1.547976	19.048048	0	0	0
	217	pv	-3.095951	1.547976	-13.605749	0	0	0
	218	pv	-3.095951	1.547976	-8.163449	0	0	0
	219	pv	-3.095951	1.547976	-2.72115	0	0	0
	220	pv	-3.095951	1.547976	2.72115	0	0	0
	221	pv	-3.095951	1.547976	8.163449	0	0	0
	222	pv	-3.095951	1.547976	13.605748	0	0	0
	223	pv	-3.095951	1.547976	19.048048	0	0	0
	224	pv	-3.095951	4.643927	-13.605749	0	0	0
	225	pv	-3.095951	4.643927	-8.163449	0	0	0
	226	pv	-3.095951	4.643927	-2.72115	0	0	0
	227	pv	-3.095951	4.643927	2.72115	0	0	0
	228	pv	-3.095951	4.643927	8.163449	0	0	0
	229	pv	-3.095951	4.643927	13.605748	0	0	0
	230	pv	-3.095951	4.643927	19.048048	0	0	0
	231	pv	-3.095951	7.739878	-13.605749	0	0	0
	232	pv	-3.095951	7.739878	-8.163449	0	0	0
	233	pv	-3.095951	7.739878	-2.72115	0	0	0
	234	pv	-3.095951	7.739878	2.72115	0	0	0
	235	pv	-3.095951	7.739878	8.163449	0	0	0
	236	pv	-3.095951	7.739878	13.605748	0	0	0
	237	pv	-3.095951	7.739878	19.048048	0	0	0
	238	pv	-3.095951	10.835829	-13.605749	0	0	0
	239	pv	-3.095951	10.835829	-8.163449	0	0	0
	240	pv	-3.095951	10.835829	-2.72115	0	0	0
	241	pv	-3.095951	10.835829	2.72115	0	0	0
	242	pv	-3.095951	10.835829	8.163449	0	0	0
	243	pv	-3.095951	10.835829	13.605748	0	0	0
	244	pv	-3.095951	10.835829	19.048048	0	0	0
	245	pv	-3.095951	13.93178	-13.605749	0	0	0
	246	pv	-3.095951	13.93178	-8.163449	0	0	0
	247	pv	-3.095951	13.93178	-2.72115	0	0	0
	248	pv	-3.095951	13.93178	2.72115	0	0	0
	249	pv	-3.095951	13.93178	8.163449	0	0	0
	250	pv	-3.095951	13.93178	13.605748	0	0	0
	251	pv	-3.095951	13.93178	19.048048	0	0	0
	252	pv	-0.0	-10.835829	-13.605749	0	0	0
	253	pv	-0.0	-10.835829	-8.163449	0	0	0
	254	pv	-0.0	-10.835829	-2.72115	0	0	0
	255	pv	-0.0	-10.835829	2.72115	0	0	0
	256	pv	-0.0	-10.835829	8.163449	0	0	0
	257	pv	0.0	-10.835829	13.605748	0	0	0
	258	pv	0.0	-10.835829	19.048048	0	0	0
	259	pv	-0.0	-7.739878	-13.605749	0	0	0
	260	pv	-0.0	-7.739878	-8.163449	0	0	0
	261	pv	-0.0	-7.739878	-2.72115	0	0	0
	262	pv	-0.0	-7.739878	2.72115	0	0	0
	263	pv	0.0	-7.739878	8.163449	0	0	0
	264	pv	0.0	-7.739878	13.605748	0	0	0
	265	pv	0.0	-7.739878	19.048048	0	0	0
	266	pv	-0.0	-4.643927	-13.605749	0	0	0
	267	pv	-0.0	-4.643927	-8.163449	0	0	0
	268	pv	-0.0	-4.643927	-2.72115	0	0	0
	269	pv	-0.0	-4.643927	2.72115	0	0	0
	270	pv	0.0	-4.643927	8.163449	0	0	0
	271	pv	0.0	-4.643927	13.605748	0	0	0
	272	pv	0.0	-4.643927	19.048048	0	0	0
	273	pv	-0.0	-1.547976	-13.605749	0	0	0
	274	pv	-0.0	-1.547976	-8.163449	0	0	0
	275	pv	-0.0	-1.547976	-2.72115	0	0	0
	276	pv	0.0	-1.547976	2.72115	0	0	0
	277	pv	0.0	-1.547976	8.163449	0	0	0
	278	pv	0.0	-1.547976	13.605748	0	0	0
	279	pv	0.0	-1.547976	19.048048	0	0	0
	280	pv	-0.0	1.547976	-13.605749	0	0	0
	281	pv	-0.0	1.547976	-8.163449	0	0	0
	282	pv	-0.0	1.547976	-2.72115	0	0	0
	283	pv	0.0	1.547976	2.72115	0	0	0
	284	pv	0.0	1.547976	8.163449	0	0	0
	285	pv	0.0	1.547976	13.605748	0	0	0
	286	pv	0.0	1.547976	19.048048	0	0	0
	287	pv	-0.0	4.643927	-13.605749	0	0	0
	288	pv	-0.0	4.643927	-8.163449	0	0	0
	289	pv	0.0	4.643927	-2.72115	0	0	0
	290	pv	0.0	4.643927	2.72115	0	0	0
	291	pv	0.0	4.643927	8.163449	0	0	0
	292	pv	0.0	4.643927	13.605748	0	0	0
	293	pv	0.0	4.643927	19.048048	0	0	0
	294	pv	-0.0	7.739878	-13.605749	0	0	0
	295	pv	-0.0	7.739878	-8.163449	0	0	0
	296	pv	0.0	7.739878	-2.72115	0	0	0
	297	pv	0.0	7.739878	2.72115	0	0	0
	298	pv	0.0	7.739878	8.163449	0	0	0
	299	pv	0.0	7.739878	13.605748	0	0	0
	300	pv	0.0	7.739878	19.048048	0	0	0
	301	pv	-0.0	10.835829	-13.605749	0	0	0
	302	pv	0.0	10.835829	-8.163449	0	0	0
	303	pv	0.0	10.835829	-2.72115	0	0	0
	304	pv	0.0	10.835829	2.72115	0	0	0
	305	pv	0.0	10.835829	8.163449	0	0	0
	306	pv	0.0	10.835829	13.605748	0	0	0
	307	pv	0.0	10.835829	19.048048	0	0	0
	308	pv	0.0	13.93178	-13.605749	0	0	0
	309	pv	0.0	13.93178	-8.163449	0	0	0
	310	pv	0.0	13.93178	-2.72115	0	0	0
	311	pv	0.0	13.93178	2.72115	0	0	0
	312	pv	0.0	13.93178	8.163449	0	0	0
	313	pv	0.0	13.93178	13.605748	0	0	0
	314	pv	0.0	13.93178	19.048048	0	0	0
	315	pv	3.095951	-10.835829	-13.605749	0	0	0
	316	pv	3.095951	-10.835829	-8.163449	0	0	0
	317	pv	3.095951	-10.835829	-2.72115	0	0	0
	318	pv	3.095951	-10.835829	2.72115	0	0	0
	319	pv	3.095951	-10.835829	8.163449	0	0	0
	320	pv	3.095951	-10.835829	13.605748	0	0	0
	321	pv	3.095951	-10.835829	19.048048	0	0	0
	322	pv	3.095951	-7.739878	-13.605749	0	0	0
	323	pv	3.095951	-7.739878	-8.163449	0	0	0
	324	pv	3.095951	-7.739878	-2.72115	0	0	0
	325	pv	3.095951	-7.739878	2.72115	0	0	0
	326	pv	3.095951	-7.739878	8.163449	0	0	0
	327	pv	3.095951	-7.739878	13.605748	0	0	0
	328	pv	3.095951	-7.739878	19.048048	0	0	0
	329	pv	3.095951	-4.643927	-13.605749	0	0	0
	330	pv	3.095951	-4.643927	-8.163449	0	0	0
	331	pv	3.095951	-4.643927	-2.72115	0	0	0
	332	pv	3.095951	-4.643927	2.72115	0	0	0
	333	pv	3.095951	-4.643927	8.163449	0	0	0
	334	pv	3.095951	-4.643927	13.605748	0	0	0
	335	pv	3.095951	-4.643927	19.048048	0	0	0
	336	pv	3.095951	-1.547976	-13.605749	0	0	0
	337	pv	3.095951	-1.547976	-8.163449	0	0	0
	338	pv	3.095951	-1.547976	-2.72115	0	0	0
	339	pv	3.095951	-1.547976	2.72115	0	0	0
	340	pv	3.095951	-1.547976	8.163449	0	0	0
	341	pv	3.095951	-1.547976	13.605748	0	0	0
	342	pv	3.095951	-1.547976	19.048048	0	0	0
	343	pv	3.095951	1.547976	-13.605749	0	0	0
	344	pv	3.095951	1.547976	-8.163449	0	0	0
	345	pv	3.095951	1.547976	-2.72115	0	0	0
	346	pv	3.095951	1.547976	2.72115	0	0	0
	347	pv	3.095951	1.547976	8.163449	0	0	0
	348	pv	3.095951	1.547976	13.605748	0	0	0
	349	pv	3.095951	1.547976	19.048048	0	0	0
	350	pv	3.095951	4.643927	-13.605749	0	0	0
	351	pv	3.095951	4.643927	-8.163449	0	0	0
	352	pv	3.095951	4.643927	-2.72115	0	0	0
	353	pv	3.095951	4.643927	2.72115	0	0	0
	354	pv	3.095951	4.643927	8.163449	0	0	0
	355	pv	3.095951	4.643927	13.605748	0	0	0
	356	pv	3.095951	4.643927	19.048048	0	0	0
	357	pv	3.095951	7.739878	-13.605749	0	0	0
	358	pv	3.095951	7.739878	-8.163449	0	0	0
	359	pv	3.095951	7.739878	-2.72115	0	0	0
	360	pv	3.095951	7.739878	2.72115	0	0	0
	361	pv	3.095951	7.739878	8.163449	0	0	0
	362	pv	3.095951	7.739878	13.605748	0	0	0
	363	pv	3.095951	7.739878	19.048048	0	0	0
	364	pv	3.095951	10.835829	-13.605749	0	0	0
	365	pv	3.095951	10.835829	-8.163449	0	0	0
	366	pv	3.095951	10.835829	-2.72115	0	0	0
	367	pv	3.095951	10.835829	2.72115	0	0	0
	368	pv	3.095951	10.835829	8.163449	0	0	0
	369	pv	3.095951	10.835829	13.605748	0	0	0
	370	pv	3.095951	10.835829	19.048048	0	0	0
	371	pv	3.095951	13.93178	-13.605749	0	0	0
	372	pv	3.095951	13.93178	-8.163449	0	0	0
	373	pv	3.095951	13.93178	-2.72115	0	0	0
	374	pv	3.095951	13.93178	2.72115	0	0	0
	375	pv	3.095951	13.93178	8.163449	0	0	0
	376	pv	3.095951	13.93178	13.605748	0	0	0
	377	pv	3.095951	13.93178	19.048048	0	0	0
	378	pv	6.191902	-10.835829	-13.605749	0	0	0
	379	pv	6.191902	-10.835829	-8.163449	0	0	0
	380	pv	6.191902	-10.835829	-2.72115	0	0	0
	381	pv	6.191902	-10.835829	2.72115	0	0	0
	382	pv	6.191902	-10.835829	8.163449	0	0	0
	383	pv	6.191902	-10.835829	13.605748	0	0	0
	384	pv	6.191902	-10.835829	19.048048	0	0	0
	385	pv	6.191902	-7.739878	-13.605749	0	0	0
	386	pv	6.191902	-7.739878	-8.163449	0	0	0
	387	pv	6.191902	-7.739878	-2.72115	0	0	0
	388	pv	6.191902	-7.739878	2.72115	0	0	0
	389	pv	6.191902	-7.739878	8.163449	0	0	0
	390	pv	6.191902	-7.739878	13.605748	0	0	0
	391	pv	6.191902	-7.739878	19.048048	0	0	0
	392	pv	6.191902	-4.643927	-13.605749	0	0	0
	393	pv	6.191902	-4.643927	-8.163449	0	0	0
	394	pv	6.191902	-4.643927	-2.72115	0	0	0
	395	pv	6.191902	-4.643927	2.72115	0	0	0
	396	pv	6.191902	-4.643927	8.163449	0	0	0
	397	pv	6.191902	-4.643927	13.605748	0	0	0
	398	pv	6.191902	-4.643927	19.048048	0	0	0
	399	pv	6.191902	-1.547976	-13.605749	0	0	0
	400	pv	6.191902	-1.547976	-8.163449	0	0	0
	401	pv	6.191902	-1.547976	-2.72115	0	0	0
	402	pv	6.191902	-1.547976	2.72115	0	0	0
	403	pv	6.191902	-1.547976	8.163449	0	0	0
	404	pv	6.191902	-1.547976	13.605748	0	0	0
	405	pv	6.191902	-1.547976	19.048048	0	0	0
	406	pv	6.191902	1.547976	-13.605749	0	0	0
	407	pv	6.191902	1.547976	-8.163449	0	0	0
	408	pv	6.191902	1.547976	-2.72115	0	0	0
	409	pv	6.191902	1.547976	2.72115	0	0	0
	410	pv	6.191902	1.547976	8.163449	0	0	0
	411	pv	6.191902	1.547976	13.605748	0	0	0
	412	pv	6.191902	1.547976	19.048048	0	0	0
	413	pv	6.191902	4.643927	-13.605749	0	0	0
	414	pv	6.191902	4.643927	-8.163449	0	0	0
	415	pv	6.191902	4.643927	-2.72115	0	0	0
	416	pv	6.191902	4.643927	2.72115	0	0	0
	417	pv	6.191902	4.643927	8.163449	0	0	0
	418	pv	6.191902	4.643927	13.605748	0	0	0
	419	pv	6.191902	4.643927	19.048048	0	0	0
	420	pv	6.191902	7.739878	-13.605749	0	0	0
	421	pv	6.191902	7.739878	-8.163449	0	0	0
	422	pv	6.191902	7.739878	-2.72115	0	0	0
	423	pv	6.191902	7.739878	2.72115	0	0	0
	424	pv	6.191902	7.739878	8.163449	0	0	0
	425	pv	6.191902	7.739878	13.605748	0	0	0
	426	pv	6.191902	7.739878	19.048048	0	0	0
	427	pv	6.191902	10.835829	-13.605749	0	0	0
	428	pv	6.191902	10.835829	-8.163449	0	0	0
	429	pv	6.191902	10.835829	-2.72115	0	0	0
	430	pv	6.191902	10.835829	2.72115	0	0	0
	431	pv	6.191902	10.835829	8.163449	0	0	0
	432	pv	6.191902	10.835829	13.605748	0	0	0
	433	pv	6.191902	10.835829	19.048048	0	0	0
	434	pv	6.191902	13.93178	-13.605749	0	0	0
	435	pv	6.191902	13.93178	-8.163449	0	0	0
	436	pv	6.191902	13.93178	-2.72115	0	0	0
	437	pv	6.191902	13.93178	2.72115	0	0	0
	438	pv	6.191902	13.93178	8.163449	0	0	0
	439	pv	6.191902	13.93178	13.605748	0	0	0
	440	pv	6.191902	13.93178	19.048048	0	0	0
	441	pv	9.287853	-10.835829	-13.605749	0	0	0
	442	pv	9.287853	-10.835829	-8.163449	0	0	0
	443	pv	9.287853	-10.835829	-2.72115	0	0	0
	444	pv	9.287853	-10.835829	2.72115	0	0	0
	445	pv	9.287853	-10.835829	8.163449	0	0	0
	446	pv	9.287853	-10.835829	13.605748	0	0	0
	447	pv	9.287853	-10.835829	19.048048	0	0	0
	448	pv	9.287853	-7.739878	-13.605749	0	0	0
	449	pv	9.287853	-7.739878	-8.163449	0	0	0
	450	pv	9.287853	-7.739878	-2.72115	0	0	0
	451	pv	9.287853	-7.739878	2.72115	0	0	0
	452	pv	9.287853	-7.739878	8.163449	0	0	0
	453	pv	9.287853	-7.739878	13.605748	0	0	0
	454	pv	9.287853	-7.739878	19.048048	0	0	0
	455	pv	9.287853	-4.643927	-13.605749	0	0	0
	456	pv	9.287853	-4.643927	-8.163449	0	0	0
	457	pv	9.287853	-4.643927	-2.72115	0	0	0
	458	pv	9.287853	-4.643927	2.72115	0	0	0
	459	pv	9.287853	-4.643927	8.163449	0	0	0
	460	pv	9.287853	-4.643927	13.605748	0	0	0
	461	pv	9.287853	-4.643927	19.048048	0	0	0
	462	pv	9.287853	-1.547976	-13.605749	0	0	0
	463	pv	9.287853	-1.547976	-8.163449	0	0	0
	464	pv	9.287853	-1.547976	-2.72115	0	0	0
	465	pv	9.287853	-1.547976	2.72115	0	0	0
	466	pv	9.287853	-1.547976	8.163449	0	0	0
	467	pv	9.287853	-1.547976	13.605748	0	0	0
	468	pv	9.287853	-1.547976	19.048048	0	0	0
	469	pv	9.287853	1.547976	-13.605749	0	0	0
	470	pv	9.287853	1.547976	-8.163449	0	0	0
	471	pv	9.287853	1.547976	-2.72115	0	0	0
	472	pv	9.287853	1.547976	2.72115	0	0	0
	473	pv	9.287853	1.547976	8.163449	0	0	0
	474	pv	9.287853	1.547976	13.605748	0	0	0
	475	pv	9.287853	1.547976	19.048048	0	0	0
	476	pv	9.287853	4.643927	-13.605749	0	0	0
	477	pv	9.287853	4.643927	-8.163449	0	0	0
	478	pv	9.287853	4.643927	-2.72115	0	0	0
	479	pv	9.287853	4.643927	2.72115	0	0	0
	480	pv	9.287853	4.643927	8.163449	0	0	0
	481	pv	9.287853	4.643927	13.605748	0	0	0
	482	pv	9.287853	4.643927	19.048048	0	0	0
	483	pv	9.287853	7.739878	-13.605749	0	0	0
	484	pv	9.287853	7.739878	-8.163449	0	0	0
	485	pv	9.287853	7.739878	-2.72115	0	0	0
	486	pv	9.287853	7.739878	2.72115	0	0	0
	487	pv	9.287853	7.739878	8.163449	0	0	0
	488	pv	9.287853	7.739878	13.605748	0	0	0
	489	pv	9.287853	7.739878	19.048048	0	0	0
	490	pv	9.287853	10.835829	-13.605749	0	0	0
	491	pv	9.287853	10.835829	-8.163449	0	0	0
	492	pv	9.287853	10.835829	-2.72115	0	0	0
	493	pv	9.287853	10.835829	2.72115	0	0	0
	494	pv	9.287853	10.835829	8.163449	0	0	0
	495	pv	9.287853	10.835829	13.605748	0	0	0
	496	pv	9.287853	10.835829	19.048048	0	0	0
	497	pv	9.287853	13.93178	-13.605749	0	0	0
	498	pv	9.287853	13.93178	-8.163449	0	0	0
	499	pv	9.287853	13.93178	-2.72115	0	0	0
	500	pv	9.287853	13.93178	2.72115	0	0	0
	501	pv	9.287853	13.93178	8.163449	0	0	0
	502	pv	9.287853	13.93178	13.605748	0	0	0
	503	pv	9.287853	13.93178	19.048048	0	0	0
	504	pv	12.383804	-10.835829	-13.605749	0	0	0
	505	pv	12.383804	-10.835829	-8.163449	0	0	0
	506	pv	12.383804	-10.835829	-2.72115	0	0	0
	507	pv	12.383804	-10.835829	2.72115	0	0	0
	508	pv	12.383804	-10.835829	8.163449	0	0	0
	509	pv	12.383804	-10.835829	13.605748	0	0	0
	510	pv	12.383804	-10.835829	19.048048	0	0	0
	511	pv	12.383804	-7.739878	-13.605749	0	0	0
	512	pv	12.383804	-7.739878	-8.163449	0	0	0
	513	pv	12.383804	-7.739878	-2.72115	0	0	0
	514	pv	12.383804	-7.739878	2.72115	0	0	0
	515	pv	12.383804	-7.739878	8.163449	0	0	0
	516	pv	12.383804	-7.739878	13.605748	0	0	0
	517	pv	12.383804	-7.739878	19.048048	0	0	0
	518	pv	12.383804	-4.643927	-13.605749	0	0	0
	519	pv	12.383804	-4.643927	-8.163449	0	0	0
	520	pv	12.383804	-4.643927	-2.72115	0	0	0
	521	pv	12.383804	-4.643927	2.72115	0	0	0
	522	pv	12.383804	-4.643927	8.163449	0	0	0
	523	pv	12.383804	-4.643927	13.605748	0	0	0
	524	pv	12.383804	-4.643927	19.048048	0	0	0
	525	pv	12.383804	-1.547976	-13.605749	0	0	0
	526	pv	12.383804	-1.547976	-8.163449	0	0	0
	527	pv	12.383804	-1.547976	-2.72115	0	0	0
	528	pv	12.383804	-1.547976	2.72115	0	0	0
	529	pv	12.383804	-1.547976	8.163449	0	0	0
	530	pv	12.383804	-1.547976	13.605748	0	0	0
	531	pv	12.383804	-1.547976	19.048048	0	0	0
	532	pv	12.383804	1.547976	-13.605749	0	0	0
	533	pv	12.383804	1.547976	-8.163449	0	0	0
	534	pv	12.383804	1.547976	-2.72115	0	0	0
	535	pv	12.383804	1.547976	2.72115	0	0	0
	536	pv	12.383804	1.547976	8.163449	0	0	0
	537	pv	12.383804	1.547976	13.605748	0	0	0
	538	pv	12.383804	1.547976	19.048048	0	0	0
	539	pv	12.383804	4.643927	-13.605749	0	0	0
	540	pv	12.383804	4.643927	-8.163449	0	0	0
	541	pv	12.383804	4.643927	-2.72115	0	0	0
	542	pv	12.383804	4.643927	2.72115	0	0	0
	543	pv	12.383804	4.643927	8.163449	0	0	0
	544	pv	12.383804	4.643927	13.605748	0	0	0
	545	pv	12.383804	4.643927	19.048048	0	0	0
	546	pv	12.383804	7.739878	-13.605749	0	0	0
	547	pv	12.383804	7.739878	-8.163449	0	0	0
	548	pv	12.383804	7.739878	-2.72115	0	0	0
	549	pv	12.383804	7.739878	2.72115	0	0	0
	550	pv	12.383804	7.739878	8.163449	0	0	0
	551	pv	12.383804	7.739878	13.605748	0	0	0
	552	pv	12.383804	7.739878	19.048048	0	0	0
	553	pv	12.383804	10.835829	-13.605749	0	0	0
	554	pv	12.383804	10.835829	-8.163449	0	0	0
	555	pv	12.383804	10.835829	-2.72115	0	0	0
	556	pv	12.383804	10.835829	2.72115	0	0	0
	557	pv	12.383804	10.835829	8.163449	0	0	0
	558	pv	12.383804	10.835829	13.605748	0	0	0
	559	pv	12.383804	10.835829	19.048048	0	0	0
	560	pv	12.383804	13.93178	-13.605749	0	0	0
	561	pv	12.383804	13.93178	-8.163449	0	0	0
	562	pv	12.383804	13.93178	-2.72115	0	0	0
	563	pv	12.383804	13.93178	2.72115	0	0	0
	564	pv	12.383804	13.93178	8.163449	0	0	0
	565	pv	12.383804	13.93178	13.605748	0	0	0
	566	pv	12.383804	13.93178	19.048048	0	0	0
	567	pv	-10.835829	-12.383804	-10.884599	0	0	0
	568	pv	-10.835829	-12.383804	-5.442299	0	0	0
	569	pv	-10.835829	-12.383804	0.0	0	0	0
	570	pv	-10.835829	-12.383804	5.442299	0	0	0
	571	pv	-10.835829	-12.383804	10.884599	0	0	0
	572	pv	-10.835829	-12.383804	16.326899	0	0	0
	573	pv	-10.835829	-12.383804	21.769197	0	0	0
	574	pv	-10.835829	-9.287853	-10.884599	0	0	0
	575	pv	-10.835829	-9.287853	-5.442299	0	0	0
	576	pv	-10.835829	-9.287853	0.0	0	0	0
	577	pv	-10.835829	-9.287853	5.442299	0	0	0
	578	pv	-10.835829	-9.287853	10.884599	0	0	0
	579	pv	-10.835829	-9.287853	16.326899	0	0	0
	580	pv	-10.835829	-9.287853	21.769197	0	0	0
	581	pv	-10.835829	-6.191902	-10.884599	0	0	0
	582	pv	-10.835829	-6.191902	-5.442299	0	0	0
	583	pv	-10.835829	-6.191902	0.0	0	0	0
	584	pv	-10.835829	-6.191902	5.442299	0	0	0
	585	pv	-10.835829	-6.191902	10.884599	0	0	0
	586	pv	-10.835829	-6.191902	16.326899	0	0	0
	587	pv	-10.835829	-6.191902	21.769197	0	0	0
	588	pv	-10.835829	-3.095951	-10.884599	0	0	0
	589	pv	-10.835829	-3.095951	-5.442299	0	0	0
	590	pv	-10.835829	-3.095951	0.0	0	0	0
	591	pv	-10.835829	-3.095951	5.442299	0	0	0
	592	pv	-10.835829	-3.095951	10.884599	0	0	0
	593	pv	-10.835829	-3.095951	16.326899	0	0	0
	594	pv	-10.835829	-3.095951	21.769197	0	0	0
	595	pv	-10.835829	-0.0	-10.884599	0	0	0
	596	pv	-10.835829	-0.0	-5.442299	0	0	0
	597	pv	-10.835829	0.0	0.0	0	0	0
	598	pv	-10.835829	0.0	5.442299	0	0	0
	599	pv	-10.835829	0.0	10.884599	0	0	0
	600	pv	-10.835829	0.0	16.326899	0	0	0
	601	pv	-10.835829	0.0	21.769197	0	0	0
	602	pv	-10.835829	3.095951	-10.884599	0	0	0
	603	pv	-10.835829	3.095951	-5.442299	0	0	0
	604	pv	-10.835829	3.095951	0.0	0	0	0
	605	pv	-10.835829	3.095951	5.442299	0	0	0
	606	pv	-10.835829	3.095951	10.884599	0	0	0
	607	pv	-10.835829	3.095951	16.326899	0	0	0
	608	pv	-10.835829	3.095951	21.769197	0	0	0
	609	pv	-10.835829	6.191902	-10.884599	0	0	0
	610	pv	-10.835829	6.191902	-5.442299	0	0	0
	611	pv	-10.835829	6.191902	0.0	0	0	0
	612	pv	-10.835829	6.191902	5.442299	0	0	0
	613	pv	-10.835829	6.191902	10.884599	0	0	0
	614	pv	-10.835829	6.191902	16.326899	0	0	0
	615	pv	-10.835829	6.191902	21.769197	0	0	0
	616	pv	-10.835829	9.287853	-10.884599	0	0	0
	617	pv	-10.835829	9.287853	-5.442299	0	0	0
	618	pv	-10.835829	9.287853	0.0	0	0	0
	619	pv	-10.835829	9.287853	5.442299	0	0	0
	620	pv	-10.835829	9.287853	10.884599	0	0	0
	621	pv	-10.835829	9.287853	16.326899	0	0	0
	622	pv	-10.835829	9.287853	21.769197	0	0	0
	623	pv	-10.835829	12.383804	-10.884599	0	0	0
	624	pv	-10.835829	12.383804	-5.442299	0	0	0
	625	pv	-10.835829	12.383804	0.0	0	0	0
	626	pv	-10.835829	12.383804	5.442299	0	0	0
	627	pv	-10.835829	12.383804	10.884599	0	0	0
	628	pv	-10.835829	12.383804	16.326899	0	0	0
	629	pv	-10.835829	12.383804	21.769197	0	0	0
	630	pv	-7.739878	-12.383804	-10.884599	0	0	0
	631	pv	-7.739878	-12.383804	-5.442299	0	0	0
	632	pv	-7.739878	-12.383804	0.0	0	0	0
	633	pv	-7.739878	-12.383804	5.442299	0	0	0
	634	pv	-7.739878	-12.383804	10.884599	0	0	0
	635	pv	-7.739878	-12.383804	16.326899	0	0	0
	636	pv	-7.739878	-12.383804	21.769197	0	0	0
	637	pv	-7.739878	-9.287853	-10.884599	0	0	0
	638	pv	-7.739878	-9.287853	-5.442299	0	0	0
	639	pv	-7.739878	-9.287853	0.0	0	0	0
	640	pv	-7.739878	-9.287853	5.442299	0	0	0
	641	pv	-7.739878	-9.287853	10.884599	0	0	0
	642	pv	-7.739878	-9.287853	16.326899	0	0	0
	643	pv	-7.739878	-9.287853	21.769197	0	0	0
	644	pv	-7.739878	-6.191902	-10.884599	0	0	0
	645	pv	-7.739878	-6.191902	-5.442299	0	0	0
	646	pv	-7.739878	-6.191902	0.0	0	0	0
	647	pv	-7.739878	-6.191902	5.442299	0	0	0
	648	pv	-7.739878	-6.191902	10.884599	0	0	0
	649	pv	-7.739878	-6.191902	16.326899	0	0	0
	650	pv	-7.739878	-6.191902	21.769197	0	0	0
	651	pv	-7.739878	-3.095951	-10.884599	0	0	0
	652	pv	-7.739878	-3.095951	-5.442299	0	0	0
	653	pv	-7.739878	-3.095951	0.0	0	0	0
	654	pv	-7.739878	-3.095951	5.442299	0	0	0
	655	pv	-7.739878	-3.095951	10.884599	0	0	0
	656	pv	-7.739878	-3.095951	16.326899	0	0	0
	657	pv	-7.739878	-3.095951	21.769197	0	0	0
	658	pv	-7.739878	-0.0	-10.884599	0	0	0
	659	pv	-7.739878	-0.0	-5.442299	0	0	0
	660	pv	-7.739878	0.0	0.0	0	0	0
	661	pv	-7.739878	0.0	5.442299	0	0	0
	662	pv	-7.739878	0.0	10.884599	0	0	0
	663	pv	-7.739878	0.0	16.326899	0	0	0
	664	pv	-7.739878	0.0	21.769197	0	0	0
	665	pv	-7.739878	3.095951	-10.884599	0	0	0
	666	pv	-7.739878	3.095951	-5.442299	0	0	0
	667	pv	-7.739878	3.095951	0.0	0	0	0
	668	pv	-7.739878	3.095951	5.442299	0	0	0
	669	pv	-7.739878	3.095951	10.884599	0	0	0
	670	pv	-7.739878	3.095951	16.326899	0	0	0
	671	pv	-7.739878	3.095951	21.769197	0	0	0
	672	pv	-7.739878	6.191902	-10.884599	0	0	0
	673	pv	-7.739878	6.191902	-5.442299	0	0	0
	674	pv	-7.739878	6.191902	0.0	0	0	0
	675	pv	-7.739878	6.191902	5.442299	0	0	0
	676	pv	-7.739878	6.191902	10.884599	0	0	0
	677	pv	-7.739878	6.191902	16.326899	0	0	0
	678	pv	-7.739878	6.191902	21.769197	0	0	0
	679	pv	-7.739878	9.287853	-10.884599	0	0	0
	680	pv	-7.739878	9.287853	-5.442299	0	0	0
	681	pv	-7.739878	9.287853	0.0	0	0	0
	682	pv	-7.739878	9.287853	5.442299	0	0	0
	683	pv	-7.739878	9.287853	10.884599	0	0	0