<OpenMD version=1>
  <MetaData>
  
molecule{
  name = "Pt";
  
  atom[0]{
     type="Pt_FQ";
     position( 0.0, 0.0, 0.0 );
  }
}
molecule{
  name = "O";
  
  atom[0]{
     type="O_FQ";
     position( 0.0, 0.0, 0.0 );
  }
}

component{
  type = "O";
  nMol = 2048;
}
component{
  type = "Pt";
  nMol = 1024;
}

flucQ {
  propagator = "Damped";
  dragCoefficient = 0.1;
}

targetTemp = 500.0;
targetPressure = 1.0;

outputFluctuatingCharges = "true";

forceField = "metalsFQ";
forceFieldFileName = "metalsFQ.frc";

ensemble = "NVE";
dt = 1.0;
runTime = 1e2;
cutoffRadius = 9;

statusTime = 1;
sampleTime = 10.0;
seed = 985456376;

useInitialExtendedSystemState="false";
useInitialTime="false";
tauThermostat = 1E3;
tauBarostat = 5E3;

  </MetaData>
  <Snapshot>
    <FrameData>
        Time: 0
        Hmat: {{ 35.84, 0, 0 }, { 0, 36.32, 0 }, { 0, 0, 25.12 }}
  Thermostat: 0, 0
    Barostat: {{ 0, 0, 0 }, { 0, 0, 0 }, { 0, 0, 0 }}
    </FrameData>
    <StuntDoubles>
	 	0	 pv 	1.162	-1.644	0.000	 0 	 0 	 0
	 	1	 pv 	3.318	-2.896	-0.000	 0 	 0 	 0
	 	2	 pv 	1.078	-3.914	-1.570	 0 	 0 	 0
	 	3	 pv 	3.402	-0.626	-1.570	 0 	 0 	 0
	 	4	 pv 	5.642	-1.644	-0.000	 0 	 0 	 0
	 	5	 pv 	7.798	-2.896	-0.000	 0 	 0 	 0
	 	6	 pv 	5.558	-3.914	-1.570	 0 	 0 	 0
	 	7	 pv 	7.882	-0.626	-1.570	 0 	 0 	 0
	 	8	 pv 	10.122	-1.644	-0.000	 0 	 0 	 0
	 	9	 pv 	12.278	-2.896	-0.000	 0 	 0 	 0
	 	10	 pv 	10.038	-3.914	-1.570	 0 	 0 	 0
	 	11	 pv 	12.362	-0.626	-1.570	 0 	 0 	 0
	 	12	 pv 	14.602	-1.644	-0.000	 0 	 0 	 0
	 	13	 pv 	16.758	-2.896	-0.000	 0 	 0 	 0
	 	14	 pv 	14.518	-3.914	-1.570	 0 	 0 	 0
	 	15	 pv 	16.842	-0.626	-1.570	 0 	 0 	 0
	 	16	 pv 	19.082	-1.644	-0.000	 0 	 0 	 0
	 	17	 pv 	21.238	-2.896	-0.000	 0 	 0 	 0
	 	18	 pv 	18.998	-3.914	-1.570	 0 	 0 	 0
	 	19	 pv 	21.322	-0.626	-1.570	 0 	 0 	 0
	 	20	 pv 	23.562	-1.644	-0.000	 0 	 0 	 0
	 	21	 pv 	25.718	-2.896	-0.000	 0 	 0 	 0
	 	22	 pv 	23.478	-3.914	-1.570	 0 	 0 	 0
	 	23	 pv 	25.802	-0.626	-1.570	 0 	 0 	 0
	 	24	 pv 	28.042	-1.644	-0.000	 0 	 0 	 0
	 	25	 pv 	30.198	-2.896	-0.000	 0 	 0 	 0
	 	26	 pv 	27.958	-3.914	-1.570	 0 	 0 	 0
	 	27	 pv 	30.282	-0.626	-1.570	 0 	 0 	 0
	 	28	 pv 	32.522	-1.644	-0.000	 0 	 0 	 0
	 	29	 pv 	34.678	-2.896	-0.000	 0 	 0 	 0
	 	30	 pv 	32.438	-3.914	-1.570	 0 	 0 	 0
	 	31	 pv 	34.762	-0.626	-1.570	 0 	 0 	 0
	 	32	 pv 	1.162	-6.184	0.000	 0 	 0 	 0
	 	33	 pv 	3.318	-7.436	0.000	 0 	 0 	 0
	 	34	 pv 	1.078	-8.454	-1.570	 0 	 0 	 0
	 	35	 pv 	3.402	-5.166	-1.570	 0 	 0 	 0
	 	36	 pv 	5.642	-6.184	0.000	 0 	 0 	 0
	 	37	 pv 	7.798	-7.436	-0.000	 0 	 0 	 0
	 	38	 pv 	5.558	-8.454	-1.570	 0 	 0 	 0
	 	39	 pv 	7.882	-5.166	-1.570	 0 	 0 	 0
	 	40	 pv 	10.122	-6.184	-0.000	 0 	 0 	 0
	 	41	 pv 	12.278	-7.436	-0.000	 0 	 0 	 0
	 	42	 pv 	10.038	-8.454	-1.570	 0 	 0 	 0
	 	43	 pv 	12.362	-5.166	-1.570	 0 	 0 	 0
	 	44	 pv 	14.602	-6.184	-0.000	 0 	 0 	 0
	 	45	 pv 	16.758	-7.436	-0.000	 0 	 0 	 0
	 	46	 pv 	14.518	-8.454	-1.570	 0 	 0 	 0
	 	47	 pv 	16.842	-5.166	-1.570	 0 	 0 	 0
	 	48	 pv 	19.082	-6.184	-0.000	 0 	 0 	 0
	 	49	 pv 	21.238	-7.436	-0.000	 0 	 0 	 0
	 	50	 pv 	18.998	-8.454	-1.570	 0 	 0 	 0
	 	51	 pv 	21.322	-5.166	-1.570	 0 	 0 	 0
	 	52	 pv 	23.562	-6.184	-0.000	 0 	 0 	 0
	 	53	 pv 	25.718	-7.436	-0.000	 0 	 0 	 0
	 	54	 pv 	23.478	-8.454	-1.570	 0 	 0 	 0
	 	55	 pv 	25.802	-5.166	-1.570	 0 	 0 	 0
	 	56	 pv 	28.042	-6.184	-0.000	 0 	 0 	 0
	 	57	 pv 	30.198	-7.436	-0.000	 0 	 0 	 0
	 	58	 pv 	27.958	-8.454	-1.570	 0 	 0 	 0
	 	59	 pv 	30.282	-5.166	-1.570	 0 	 0 	 0
	 	60	 pv 	32.522	-6.184	-0.000	 0 	 0 	 0
	 	61	 pv 	34.678	-7.436	-0.000	 0 	 0 	 0
	 	62	 pv 	32.438	-8.454	-1.570	 0 	 0 	 0
	 	63	 pv 	34.762	-5.166	-1.570	 0 	 0 	 0
	 	64	 pv 	1.162	-10.724	0.000	 0 	 0 	 0
	 	65	 pv 	3.318	-11.976	0.000	 0 	 0 	 0
	 	66	 pv 	1.078	-12.994	-1.570	 0 	 0 	 0
	 	67	 pv 	3.402	-9.706	-1.570	 0 	 0 	 0
	 	68	 pv 	5.642	-10.724	0.000	 0 	 0 	 0
	 	69	 pv 	7.798	-11.976	0.000	 0 	 0 	 0
	 	70	 pv 	5.558	-12.994	-1.570	 0 	 0 	 0
	 	71	 pv 	7.882	-9.706	-1.570	 0 	 0 	 0
	 	72	 pv 	10.122	-10.724	0.000	 0 	 0 	 0
	 	73	 pv 	12.278	-11.976	-0.000	 0 	 0 	 0
	 	74	 pv 	10.038	-12.994	-1.570	 0 	 0 	 0
	 	75	 pv 	12.362	-9.706	-1.570	 0 	 0 	 0
	 	76	 pv 	14.602	-10.724	-0.000	 0 	 0 	 0
	 	77	 pv 	16.758	-11.976	-0.000	 0 	 0 	 0
	 	78	 pv 	14.518	-12.994	-1.570	 0 	 0 	 0
	 	79	 pv 	16.842	-9.706	-1.570	 0 	 0 	 0
	 	80	 pv 	19.082	-10.724	-0.000	 0 	 0 	 0
	 	81	 pv 	21.238	-11.976	-0.000	 0 	 0 	 0
	 	82	 pv 	18.998	-12.994	-1.570	 0 	 0 	 0
	 	83	 pv 	21.322	-9.706	-1.570	 0 	 0 	 0
	 	84	 pv 	23.562	-10.724	-0.000	 0 	 0 	 0
	 	85	 pv 	25.718	-11.976	-0.000	 0 	 0 	 0
	 	86	 pv 	23.478	-12.994	-1.570	 0 	 0 	 0
	 	87	 pv 	25.802	-9.706	-1.570	 0 	 0 	 0
	 	88	 pv 	28.042	-10.724	-0.000	 0 	 0 	 0
	 	89	 pv 	30.198	-11.976	-0.000	 0 	 0 	 0
	 	90	 pv 	27.958	-12.994	-1.570	 0 	 0 	 0
	 	91	 pv 	30.282	-9.706	-1.570	 0 	 0 	 0
	 	92	 pv 	32.522	-10.724	-0.000	 0 	 0 	 0
	 	93	 pv 	34.678	-11.976	-0.000	 0 	 0 	 0
	 	94	 pv 	32.438	-12.994	-1.570	 0 	 0 	 0
	 	95	 pv 	34.762	-9.706	-1.570	 0 	 0 	 0
	 	96	 pv 	1.162	-15.264	0.000	 0 	 0 	 0
	 	97	 pv 	3.318	-16.516	0.000	 0 	 0 	 0
	 	98	 pv 	1.078	-17.534	-1.570	 0 	 0 	 0
	 	99	 pv 	3.402	-14.246	-1.570	 0 	 0 	 0
	 	100	 pv 	5.642	-15.264	0.000	 0 	 0 	 0
	 	101	 pv 	7.798	-16.516	0.000	 0 	 0 	 0
	 	102	 pv 	5.558	-17.534	-1.570	 0 	 0 	 0
	 	103	 pv 	7.882	-14.246	-1.570	 0 	 0 	 0
	 	104	 pv 	10.122	-15.264	0.000	 0 	 0 	 0
	 	105	 pv 	12.278	-16.516	0.000	 0 	 0 	 0
	 	106	 pv 	10.038	-17.534	-1.570	 0 	 0 	 0
	 	107	 pv 	12.362	-14.246	-1.570	 0 	 0 	 0
	 	108	 pv 	14.602	-15.264	0.000	 0 	 0 	 0
	 	109	 pv 	16.758	-16.516	-0.000	 0 	 0 	 0
	 	110	 pv 	14.518	-17.534	-1.570	 0 	 0 	 0
	 	111	 pv 	16.842	-14.246	-1.570	 0 	 0 	 0
	 	112	 pv 	19.082	-15.264	-0.000	 0 	 0 	 0
	 	113	 pv 	21.238	-16.516	-0.000	 0 	 0 	 0
	 	114	 pv 	18.998	-17.534	-1.570	 0 	 0 	 0
	 	115	 pv 	21.322	-14.246	-1.570	 0 	 0 	 0
	 	116	 pv 	23.562	-15.264	-0.000	 0 	 0 	 0
	 	117	 pv 	25.718	-16.516	-0.000	 0 	 0 	 0
	 	118	 pv 	23.478	-17.534	-1.570	 0 	 0 	 0
	 	119	 pv 	25.802	-14.246	-1.570	 0 	 0 	 0
	 	120	 pv 	28.042	-15.264	-0.000	 0 	 0 	 0
	 	121	 pv 	30.198	-16.516	-0.000	 0 	 0 	 0
	 	122	 pv 	27.958	-17.534	-1.570	 0 	 0 	 0
	 	123	 pv 	30.282	-14.246	-1.570	 0 	 0 	 0
	 	124	 pv 	32.522	-15.264	-0.000	 0 	 0 	 0
	 	125	 pv 	34.678	-16.516	-0.000	 0 	 0 	 0
	 	126	 pv 	32.438	-17.534	-1.570	 0 	 0 	 0
	 	127	 pv 	34.762	-14.246	-1.570	 0 	 0 	 0
	 	128	 pv 	1.162	-19.804	0.000	 0 	 0 	 0
	 	129	 pv 	3.318	-21.056	0.000	 0 	 0 	 0
	 	130	 pv 	1.078	-22.074	-1.570	 0 	 0 	 0
	 	131	 pv 	3.402	-18.786	-1.570	 0 	 0 	 0
	 	132	 pv 	5.642	-19.804	0.000	 0 	 0 	 0
	 	133	 pv 	7.798	-21.056	0.000	 0 	 0 	 0
	 	134	 pv 	5.558	-22.074	-1.570	 0 	 0 	 0
	 	135	 pv 	7.882	-18.786	-1.570	 0 	 0 	 0
	 	136	 pv 	10.122	-19.804	0.000	 0 	 0 	 0
	 	137	 pv 	12.278	-21.056	0.000	 0 	 0 	 0
	 	138	 pv 	10.038	-22.074	-1.570	 0 	 0 	 0
	 	139	 pv 	12.362	-18.786	-1.570	 0 	 0 	 0
	 	140	 pv 	14.602	-19.804	0.000	 0 	 0 	 0
	 	141	 pv 	16.758	-21.056	0.000	 0 	 0 	 0
	 	142	 pv 	14.518	-22.074	-1.570	 0 	 0 	 0
	 	143	 pv 	16.842	-18.786	-1.570	 0 	 0 	 0
	 	144	 pv 	19.082	-19.804	0.000	 0 	 0 	 0
	 	145	 pv 	21.238	-21.056	-0.000	 0 	 0 	 0
	 	146	 pv 	18.998	-22.074	-1.570	 0 	 0 	 0
	 	147	 pv 	21.322	-18.786	-1.570	 0 	 0 	 0
	 	148	 pv 	23.562	-19.804	-0.000	 0 	 0 	 0
	 	149	 pv 	25.718	-21.056	-0.000	 0 	 0 	 0
	 	150	 pv 	23.478	-22.074	-1.570	 0 	 0 	 0
	 	151	 pv 	25.802	-18.786	-1.570	 0 	 0 	 0
	 	152	 pv 	28.042	-19.804	-0.000	 0 	 0 	 0
	 	153	 pv 	30.198	-21.056	-0.000	 0 	 0 	 0
	 	154	 pv 	27.958	-22.074	-1.570	 0 	 0 	 0
	 	155	 pv 	30.282	-18.786	-1.570	 0 	 0 	 0
	 	156	 pv 	32.522	-19.804	-0.000	 0 	 0 	 0
	 	157	 pv 	34.678	-21.056	-0.000	 0 	 0 	 0
	 	158	 pv 	32.438	-22.074	-1.570	 0 	 0 	 0
	 	159	 pv 	34.762	-18.786	-1.570	 0 	 0 	 0
	 	160	 pv 	1.162	-24.344	0.000	 0 	 0 	 0
	 	161	 pv 	3.318	-25.596	0.000	 0 	 0 	 0
	 	162	 pv 	1.078	-26.614	-1.570	 0 	 0 	 0
	 	163	 pv 	3.402	-23.326	-1.570	 0 	 0 	 0
	 	164	 pv 	5.642	-24.344	0.000	 0 	 0 	 0
	 	165	 pv 	7.798	-25.596	0.000	 0 	 0 	 0
	 	166	 pv 	5.558	-26.614	-1.570	 0 	 0 	 0
	 	167	 pv 	7.882	-23.326	-1.570	 0 	 0 	 0
	 	168	 pv 	10.122	-24.344	0.000	 0 	 0 	 0
	 	169	 pv 	12.278	-25.596	0.000	 0 	 0 	 0
	 	170	 pv 	10.038	-26.614	-1.570	 0 	 0 	 0
	 	171	 pv 	12.362	-23.326	-1.570	 0 	 0 	 0
	 	172	 pv 	14.602	-24.344	0.000	 0 	 0 	 0
	 	173	 pv 	16.758	-25.596	0.000	 0 	 0 	 0
	 	174	 pv 	14.518	-26.614	-1.570	 0 	 0 	 0
	 	175	 pv 	16.842	-23.326	-1.570	 0 	 0 	 0
	 	176	 pv 	19.082	-24.344	0.000	 0 	 0 	 0
	 	177	 pv 	21.238	-25.596	0.000	 0 	 0 	 0
	 	178	 pv 	18.998	-26.614	-1.570	 0 	 0 	 0
	 	179	 pv 	21.322	-23.326	-1.570	 0 	 0 	 0
	 	180	 pv 	23.562	-24.344	0.000	 0 	 0 	 0
	 	181	 pv 	25.718	-25.596	-0.000	 0 	 0 	 0
	 	182	 pv 	23.478	-26.614	-1.570	 0 	 0 	 0
	 	183	 pv 	25.802	-23.326	-1.570	 0 	 0 	 0
	 	184	 pv 	28.042	-24.344	-0.000	 0 	 0 	 0
	 	185	 pv 	30.198	-25.596	-0.000	 0 	 0 	 0
	 	186	 pv 	27.958	-26.614	-1.570	 0 	 0 	 0
	 	187	 pv 	30.282	-23.326	-1.570	 0 	 0 	 0
	 	188	 pv 	32.522	-24.344	-0.000	 0 	 0 	 0
	 	189	 pv 	34.678	-25.596	-0.000	 0 	 0 	 0
	 	190	 pv 	32.438	-26.614	-1.570	 0 	 0 	 0
	 	191	 pv 	34.762	-23.326	-1.570	 0 	 0 	 0
	 	192	 pv 	1.162	-28.884	0.000	 0 	 0 	 0
	 	193	 pv 	3.318	-30.136	0.000	 0 	 0 	 0
	 	194	 pv 	1.078	-31.154	-1.570	 0 	 0 	 0
	 	195	 pv 	3.402	-27.866	-1.570	 0 	 0 	 0
	 	196	 pv 	5.642	-28.884	0.000	 0 	 0 	 0
	 	197	 pv 	7.798	-30.136	0.000	 0 	 0 	 0
	 	198	 pv 	5.558	-31.154	-1.570	 0 	 0 	 0
	 	199	 pv 	7.882	-27.866	-1.570	 0 	 0 	 0
	 	200	 pv 	10.122	-28.884	0.000	 0 	 0 	 0
	 	201	 pv 	12.278	-30.136	0.000	 0 	 0 	 0
	 	202	 pv 	10.038	-31.154	-1.570	 0 	 0 	 0
	 	203	 pv 	12.362	-27.866	-1.570	 0 	 0 	 0
	 	204	 pv 	14.602	-28.884	0.000	 0 	 0 	 0
	 	205	 pv 	16.758	-30.136	0.000	 0 	 0 	 0
	 	206	 pv 	14.518	-31.154	-1.570	 0 	 0 	 0
	 	207	 pv 	16.842	-27.866	-1.570	 0 	 0 	 0
	 	208	 pv 	19.082	-28.884	0.000	 0 	 0 	 0
	 	209	 pv 	21.238	-30.136	0.000	 0 	 0 	 0
	 	210	 pv 	18.998	-31.154	-1.570	 0 	 0 	 0
	 	211	 pv 	21.322	-27.866	-1.570	 0 	 0 	 0
	 	212	 pv 	23.562	-28.884	0.000	 0 	 0 	 0
	 	213	 pv 	25.718	-30.136	0.000	 0 	 0 	 0
	 	214	 pv 	23.478	-31.154	-1.570	 0 	 0 	 0
	 	215	 pv 	25.802	-27.866	-1.570	 0 	 0 	 0
	 	216	 pv 	28.042	-28.884	0.000	 0 	 0 	 0
	 	217	 pv 	30.198	-30.136	-0.000	 0 	 0 	 0
	 	218	 pv 	27.958	-31.154	-1.570	 0 	 0 	 0
	 	219	 pv 	30.282	-27.866	-1.570	 0 	 0 	 0
	 	220	 pv 	32.522	-28.884	-0.000	 0 	 0 	 0
	 	221	 pv 	34.678	-30.136	-0.000	 0 	 0 	 0
	 	222	 pv 	32.438	-31.154	-1.570	 0 	 0 	 0
	 	223	 pv 	34.762	-27.866	-1.570	 0 	 0 	 0
	 	224	 pv 	1.162	-33.424	0.000	 0 	 0 	 0
	 	225	 pv 	3.318	-34.676	0.000	 0 	 0 	 0
	 	226	 pv 	1.078	-35.694	-1.570	 0 	 0 	 0
	 	227	 pv 	3.402	-32.406	-1.570	 0 	 0 	 0
	 	228	 pv 	5.642	-33.424	0.000	 0 	 0 	 0
	 	229	 pv 	7.798	-34.676	0.000	 0 	 0 	 0
	 	230	 pv 	5.558	-35.694	-1.570	 0 	 0 	 0
	 	231	 pv 	7.882	-32.406	-1.570	 0 	 0 	 0
	 	232	 pv 	10.122	-33.424	0.000	 0 	 0 	 0
	 	233	 pv 	12.278	-34.676	0.000	 0 	 0 	 0
	 	234	 pv 	10.038	-35.694	-1.570	 0 	 0 	 0
	 	235	 pv 	12.362	-32.406	-1.570	 0 	 0 	 0
	 	236	 pv 	14.602	-33.424	0.000	 0 	 0 	 0
	 	237	 pv 	16.758	-34.676	0.000	 0 	 0 	 0
	 	238	 pv 	14.518	-35.694	-1.570	 0 	 0 	 0
	 	239	 pv 	16.842	-32.406	-1.570	 0 	 0 	 0
	 	240	 pv 	19.082	-33.424	0.000	 0 	 0 	 0
	 	241	 pv 	21.238	-34.676	0.000	 0 	 0 	 0
	 	242	 pv 	18.998	-35.694	-1.570	 0 	 0 	 0
	 	243	 pv 	21.322	-32.406	-1.570	 0 	 0 	 0
	 	244	 pv 	23.562	-33.424	0.000	 0 	 0 	 0
	 	245	 pv 	25.718	-34.676	0.000	 0 	 0 	 0
	 	246	 pv 	23.478	-35.694	-1.570	 0 	 0 	 0
	 	247	 pv 	25.802	-32.406	-1.570	 0 	 0 	 0
	 	248	 pv 	28.042	-33.424	0.000	 0 	 0 	 0
	 	249	 pv 	30.198	-34.676	0.000	 0 	 0 	 0
	 	250	 pv 	27.958	-35.694	-1.570	 0 	 0 	 0
	 	251	 pv 	30.282	-32.406	-1.570	 0 	 0 	 0
	 	252	 pv 	32.522	-33.424	0.000	 0 	 0 	 0
	 	253	 pv 	34.678	-34.676	-0.000	 0 	 0 	 0
	 	254	 pv 	32.438	-35.694	-1.570	 0 	 0 	 0
	 	255	 pv 	34.762	-32.406	-1.570	 0 	 0 	 0
	 	256	 pv 	1.162	-1.644	-3.140	 0 	 0 	 0
	 	257	 pv 	3.318	-2.896	-3.140	 0 	 0 	 0
	 	258	 pv 	1.078	-3.914	-4.710	 0 	 0 	 0
	 	259	 pv 	3.402	-0.626	-4.710	 0 	 0 	 0
	 	260	 pv 	5.642	-1.644	-3.140	 0 	 0 	 0
	 	261	 pv 	7.798	-2.896	-3.140	 0 	 0 	 0
	 	262	 pv 	5.558	-3.914	-4.710	 0 	 0 	 0
	 	263	 pv 	7.882	-0.626	-4.710	 0 	 0 	 0
	 	264	 pv 	10.122	-1.644	-3.140	 0 	 0 	 0
	 	265	 pv 	12.278	-2.896	-3.140	 0 	 0 	 0
	 	266	 pv 	10.038	-3.914	-4.710	 0 	 0 	 0
	 	267	 pv 	12.362	-0.626	-4.710	 0 	 0 	 0
	 	268	 pv 	14.602	-1.644	-3.140	 0 	 0 	 0
	 	269	 pv 	16.758	-2.896	-3.140	 0 	 0 	 0
	 	270	 pv 	14.518	-3.914	-4.710	 0 	 0 	 0
	 	271	 pv 	16.842	-0.626	-4.710	 0 	 0 	 0
	 	272	 pv 	19.082	-1.644	-3.140	 0 	 0 	 0
	 	273	 pv 	21.238	-2.896	-3.140	 0 	 0 	 0
	 	274	 pv 	18.998	-3.914	-4.710	 0 	 0 	 0
	 	275	 pv 	21.322	-0.626	-4.710	 0 	 0 	 0
	 	276	 pv 	23.562	-1.644	-3.140	 0 	 0 	 0
	 	277	 pv 	25.718	-2.896	-3.140	 0 	 0 	 0
	 	278	 pv 	23.478	-3.914	-4.710	 0 	 0 	 0
	 	279	 pv 	25.802	-0.626	-4.710	 0 	 0 	 0
	 	280	 pv 	28.042	-1.644	-3.140	 0 	 0 	 0
	 	281	 pv 	30.198	-2.896	-3.140	 0 	 0 	 0
	 	282	 pv 	27.958	-3.914	-4.710	 0 	 0 	 0
	 	283	 pv 	30.282	-0.626	-4.710	 0 	 0 	 0
	 	284	 pv 	32.522	-1.644	-3.140	 0 	 0 	 0
	 	285	 pv 	34.678	-2.896	-3.140	 0 	 0 	 0
	 	286	 pv 	32.438	-3.914	-4.710	 0 	 0 	 0
	 	287	 pv 	34.762	-0.626	-4.710	 0 	 0 	 0
	 	288	 pv 	1.162	-6.184	-3.140	 0 	 0 	 0
	 	289	 pv 	3.318	-7.436	-3.140	 0 	 0 	 0
	 	290	 pv 	1.078	-8.454	-4.710	 0 	 0 	 0
	 	291	 pv 	3.402	-5.166	-4.710	 0 	 0 	 0
	 	292	 pv 	5.642	-6.184	-3.140	 0 	 0 	 0
	 	293	 pv 	7.798	-7.436	-3.140	 0 	 0 	 0
	 	294	 pv 	5.558	-8.454	-4.710	 0 	 0 	 0
	 	295	 pv 	7.882	-5.166	-4.710	 0 	 0 	 0
	 	296	 pv 	10.122	-6.184	-3.140	 0 	 0 	 0
	 	297	 pv 	12.278	-7.436	-3.140	 0 	 0 	 0
	 	298	 pv 	10.038	-8.454	-4.710	 0 	 0 	 0
	 	299	 pv 	12.362	-5.166	-4.710	 0 	 0 	 0
	 	300	 pv 	14.602	-6.184	-3.140	 0 	 0 	 0
	 	301	 pv 	16.758	-7.436	-3.140	 0 	 0 	 0
	 	302	 pv 	14.518	-8.454	-4.710	 0 	 0 	 0
	 	303	 pv 	16.842	-5.166	-4.710	 0 	 0 	 0
	 	304	 pv 	19.082	-6.184	-3.140	 0 	 0 	 0
	 	305	 pv 	21.238	-7.436	-3.140	 0 	 0 	 0
	 	306	 pv 	18.998	-8.454	-4.710	 0 	 0 	 0
	 	307	 pv 	21.322	-5.166	-4.710	 0 	 0 	 0
	 	308	 pv 	23.562	-6.184	-3.140	 0 	 0 	 0
	 	309	 pv 	25.718	-7.436	-3.140	 0 	 0 	 0
	 	310	 pv 	23.478	-8.454	-4.710	 0 	 0 	 0
	 	311	 pv 	25.802	-5.166	-4.710	 0 	 0 	 0
	 	312	 pv 	28.042	-6.184	-3.140	 0 	 0 	 0
	 	313	 pv 	30.198	-7.436	-3.140	 0 	 0 	 0
	 	314	 pv 	27.958	-8.454	-4.710	 0 	 0 	 0
	 	315	 pv 	30.282	-5.166	-4.710	 0 	 0 	 0
	 	316	 pv 	32.522	-6.184	-3.140	 0 	 0 	 0
	 	317	 pv 	34.678	-7.436	-3.140	 0 	 0 	 0
	 	318	 pv 	32.438	-8.454	-4.710	 0 	 0 	 0
	 	319	 pv 	34.762	-5.166	-4.710	 0 	 0 	 0
	 	320	 pv 	1.162	-10.724	-3.140	 0 	 0 	 0
	 	321	 pv 	3.318	-11.976	-3.140	 0 	 0 	 0
	 	322	 pv 	1.078	-12.994	-4.710	 0 	 0 	 0
	 	323	 pv 	3.402	-9.706	-4.710	 0 	 0 	 0
	 	324	 pv 	5.642	-10.724	-3.140	 0 	 0 	 0
	 	325	 pv 	7.798	-11.976	-3.140	 0 	 0 	 0
	 	326	 pv 	5.558	-12.994	-4.710	 0 	 0 	 0
	 	327	 pv 	7.882	-9.706	-4.710	 0 	 0 	 0
	 	328	 pv 	10.122	-10.724	-3.140	 0 	 0 	 0
	 	329	 pv 	12.278	-11.976	-3.140	 0 	 0 	 0
	 	330	 pv 	10.038	-12.994	-4.710	 0 	 0 	 0
	 	331	 pv 	12.362	-9.706	-4.710	 0 	 0 	 0
	 	332	 pv 	14.602	-10.724	-3.140	 0 	 0 	 0
	 	333	 pv 	16.758	-11.976	-3.140	 0 	 0 	 0
	 	334	 pv 	14.518	-12.994	-4.710	 0 	 0 	 0
	 	335	 pv 	16.842	-9.706	-4.710	 0 	 0 	 0
	 	336	 pv 	19.082	-10.724	-3.140	 0 	 0 	 0
	 	337	 pv 	21.238	-11.976	-3.140	 0 	 0 	 0
	 	338	 pv 	18.998	-12.994	-4.710	 0 	 0 	 0
	 	339	 pv 	21.322	-9.706	-4.710	 0 	 0 	 0
	 	340	 pv 	23.562	-10.724	-3.140	 0 	 0 	 0
	 	341	 pv 	25.718	-11.976	-3.140	 0 	 0 	 0
	 	342	 pv 	23.478	-12.994	-4.710	 0 	 0 	 0
	 	343	 pv 	25.802	-9.706	-4.710	 0 	 0 	 0
	 	344	 pv 	28.042	-10.724	-3.140	 0 	 0 	 0
	 	345	 pv 	30.198	-11.976	-3.140	 0 	 0 	 0
	 	346	 pv 	27.958	-12.994	-4.710	 0 	 0 	 0
	 	347	 pv 	30.282	-9.706	-4.710	 0 	 0 	 0
	 	348	 pv 	32.522	-10.724	-3.140	 0 	 0 	 0
	 	349	 pv 	34.678	-11.976	-3.140	 0 	 0 	 0
	 	350	 pv 	32.438	-12.994	-4.710	 0 	 0 	 0
	 	351	 pv 	34.762	-9.706	-4.710	 0 	 0 	 0
	 	352	 pv 	1.162	-15.264	-3.140	 0 	 0 	 0
	 	353	 pv 	3.318	-16.516	-3.140	 0 	 0 	 0
	 	354	 pv 	1.078	-17.534	-4.710	 0 	 0 	 0
	 	355	 pv 	3.402	-14.246	-4.710	 0 	 0 	 0
	 	356	 pv 	5.642	-15.264	-3.140	 0 	 0 	 0
	 	357	 pv 	7.798	-16.516	-3.140	 0 	 0 	 0
	 	358	 pv 	5.558	-17.534	-4.710	 0 	 0 	 0
	 	359	 pv 	7.882	-14.246	-4.710	 0 	 0 	 0
	 	360	 pv 	10.122	-15.264	-3.140	 0 	 0 	 0
	 	361	 pv 	12.278	-16.516	-3.140	 0 	 0 	 0
	 	362	 pv 	10.038	-17.534	-4.710	 0 	 0 	 0
	 	363	 pv 	12.362	-14.246	-4.710	 0 	 0 	 0
	 	364	 pv 	14.602	-15.264	-3.140	 0 	 0 	 0
	 	365	 pv 	16.758	-16.516	-3.140	 0 	 0 	 0
	 	366	 pv 	14.518	-17.534	-4.710	 0 	 0 	 0
	 	367	 pv 	16.842	-14.246	-4.710	 0 	 0 	 0
	 	368	 pv 	19.082	-15.264	-3.140	 0 	 0 	 0
	 	369	 pv 	21.238	-16.516	-3.140	 0 	 0 	 0
	 	370	 pv 	18.998	-17.534	-4.710	 0 	 0 	 0
	 	371	 pv 	21.322	-14.246	-4.710	 0 	 0 	 0
	 	372	 pv 	23.562	-15.264	-3.140	 0 	 0 	 0
	 	373	 pv 	25.718	-16.516	-3.140	 0 	 0 	 0
	 	374	 pv 	23.478	-17.534	-4.710	 0 	 0 	 0
	 	375	 pv 	25.802	-14.246	-4.710	 0 	 0 	 0
	 	376	 pv 	28.042	-15.264	-3.140	 0 	 0 	 0
	 	377	 pv 	30.198	-16.516	-3.140	 0 	 0 	 0
	 	378	 pv 	27.958	-17.534	-4.710	 0 	 0 	 0
	 	379	 pv 	30.282	-14.246	-4.710	 0 	 0 	 0
	 	380	 pv 	32.522	-15.264	-3.140	 0 	 0 	 0
	 	381	 pv 	34.678	-16.516	-3.140	 0 	 0 	 0
	 	382	 pv 	32.438	-17.534	-4.710	 0 	 0 	 0
	 	383	 pv 	34.762	-14.246	-4.710	 0 	 0 	 0
	 	384	 pv 	1.162	-19.804	-3.140	 0 	 0 	 0
	 	385	 pv 	3.318	-21.056	-3.140	 0 	 0 	 0
	 	386	 pv 	1.078	-22.074	-4.710	 0 	 0 	 0
	 	387	 pv 	3.402	-18.786	-4.710	 0 	 0 	 0
	 	388	 pv 	5.642	-19.804	-3.140	 0 	 0 	 0
	 	389	 pv 	7.798	-21.056	-3.140	 0 	 0 	 0
	 	390	 pv 	5.558	-22.074	-4.710	 0 	 0 	 0
	 	391	 pv 	7.882	-18.786	-4.710	 0 	 0 	 0
	 	392	 pv 	10.122	-19.804	-3.140	 0 	 0 	 0
	 	393	 pv 	12.278	-21.056	-3.140	 0 	 0 	 0
	 	394	 pv 	10.038	-22.074	-4.710	 0 	 0 	 0
	 	395	 pv 	12.362	-18.786	-4.710	 0 	 0 	 0
	 	396	 pv 	14.602	-19.804	-3.140	 0 	 0 	 0
	 	397	 pv 	16.758	-21.056	-3.140	 0 	 0 	 0
	 	398	 pv 	14.518	-22.074	-4.710	 0 	 0 	 0
	 	399	 pv 	16.842	-18.786	-4.710	 0 	 0 	 0
	 	400	 pv 	19.082	-19.804	-3.140	 0 	 0 	 0
	 	401	 pv 	21.238	-21.056	-3.140	 0 	 0 	 0
	 	402	 pv 	18.998	-22.074	-4.710	 0 	 0 	 0
	 	403	 pv 	21.322	-18.786	-4.710	 0 	 0 	 0
	 	404	 pv 	23.562	-19.804	-3.140	 0 	 0 	 0
	 	405	 pv 	25.718	-21.056	-3.140	 0 	 0 	 0
	 	406	 pv 	23.478	-22.074	-4.710	 0 	 0 	 0
	 	407	 pv 	25.802	-18.786	-4.710	 0 	 0 	 0
	 	408	 pv 	28.042	-19.804	-3.140	 0 	 0 	 0
	 	409	 pv 	30.198	-21.056	-3.140	 0 	 0 	 0
	 	410	 pv 	27.958	-22.074	-4.710	 0 	 0 	 0
	 	411	 pv 	30.282	-18.786	-4.710	 0 	 0 	 0
	 	412	 pv 	32.522	-19.804	-3.140	 0 	 0 	 0
	 	413	 pv 	34.678	-21.056	-3.140	 0 	 0 	 0
	 	414	 pv 	32.438	-22.074	-4.710	 0 	 0 	 0
	 	415	 pv 	34.762	-18.786	-4.710	 0 	 0 	 0
	 	416	 pv 	1.162	-24.344	-3.140	 0 	 0 	 0
	 	417	 pv 	3.318	-25.596	-3.140	 0 	 0 	 0
	 	418	 pv 	1.078	-26.614	-4.710	 0 	 0 	 0
	 	419	 pv 	3.402	-23.326	-4.710	 0 	 0 	 0
	 	420	 pv 	5.642	-24.344	-3.140	 0 	 0 	 0
	 	421	 pv 	7.798	-25.596	-3.140	 0 	 0 	 0
	 	422	 pv 	5.558	-26.614	-4.710	 0 	 0 	 0
	 	423	 pv 	7.882	-23.326	-4.710	 0 	 0 	 0
	 	424	 pv 	10.122	-24.344	-3.140	 0 	 0 	 0
	 	425	 pv 	12.278	-25.596	-3.140	 0 	 0 	 0
	 	426	 pv 	10.038	-26.614	-4.710	 0 	 0 	 0
	 	427	 pv 	12.362	-23.326	-4.710	 0 	 0 	 0
	 	428	 pv 	14.602	-24.344	-3.140	 0 	 0 	 0
	 	429	 pv 	16.758	-25.596	-3.140	 0 	 0 	 0
	 	430	 pv 	14.518	-26.614	-4.710	 0 	 0 	 0
	 	431	 pv 	16.842	-23.326	-4.710	 0 	 0 	 0
	 	432	 pv 	19.082	-24.344	-3.140	 0 	 0 	 0
	 	433	 pv 	21.238	-25.596	-3.140	 0 	 0 	 0
	 	434	 pv 	18.998	-26.614	-4.710	 0 	 0 	 0
	 	435	 pv 	21.322	-23.326	-4.710	 0 	 0 	 0
	 	436	 pv 	23.562	-24.344	-3.140	 0 	 0 	 0
	 	437	 pv 	25.718	-25.596	-3.140	 0 	 0 	 0
	 	438	 pv 	23.478	-26.614	-4.710	 0 	 0 	 0
	 	439	 pv 	25.802	-23.326	-4.710	 0 	 0 	 0
	 	440	 pv 	28.042	-24.344	-3.140	 0 	 0 	 0
	 	441	 pv 	30.198	-25.596	-3.140	 0 	 0 	 0
	 	442	 pv 	27.958	-26.614	-4.710	 0 	 0 	 0
	 	443	 pv 	30.282	-23.326	-4.710	 0 	 0 	 0
	 	444	 pv 	32.522	-24.344	-3.140	 0 	 0 	 0
	 	445	 pv 	34.678	-25.596	-3.140	 0 	 0 	 0
	 	446	 pv 	32.438	-26.614	-4.710	 0 	 0 	 0
	 	447	 pv 	34.762	-23.326	-4.710	 0 	 0 	 0
	 	448	 pv 	1.162	-28.884	-3.140	 0 	 0 	 0
	 	449	 pv 	3.318	-30.136	-3.140	 0 	 0 	 0
	 	450	 pv 	1.078	-31.154	-4.710	 0 	 0 	 0
	 	451	 pv 	3.402	-27.866	-4.710	 0 	 0 	 0
	 	452	 pv 	5.642	-28.884	-3.140	 0 	 0 	 0
	 	453	 pv 	7.798	-30.136	-3.140	 0 	 0 	 0
	 	454	 pv 	5.558	-31.154	-4.710	 0 	 0 	 0
	 	455	 pv 	7.882	-27.866	-4.710	 0 	 0 	 0
	 	456	 pv 	10.122	-28.884	-3.140	 0 	 0 	 0
	 	457	 pv 	12.278	-30.136	-3.140	 0 	 0 	 0
	 	458	 pv 	10.038	-31.154	-4.710	 0 	 0 	 0
	 	459	 pv 	12.362	-27.866	-4.710	 0 	 0 	 0
	 	460	 pv 	14.602	-28.884	-3.140	 0 	 0 	 0
	 	461	 pv 	16.758	-30.136	-3.140	 0 	 0 	 0
	 	462	 pv 	14.518	-31.154	-4.710	 0 	 0 	 0
	 	463	 pv 	16.842	-27.866	-4.710	 0 	 0 	 0
	 	464	 pv 	19.082	-28.884	-3.140	 0 	 0 	 0
	 	465	 pv 	21.238	-30.136	-3.140	 0 	 0 	 0
	 	466	 pv 	18.998	-31.154	-4.710	 0 	 0 	 0
	 	467	 pv 	21.322	-27.866	-4.710	 0 	 0 	 0
	 	468	 pv 	23.562	-28.884	-3.140	 0 	 0 	 0
	 	469	 pv 	25.718	-30.136	-3.140	 0 	 0 	 0
	 	470	 pv 	23.478	-31.154	-4.710	 0 	 0 	 0
	 	471	 pv 	25.802	-27.866	-4.710	 0 	 0 	 0
	 	472	 pv 	28.042	-28.884	-3.140	 0 	 0 	 0
	 	473	 pv 	30.198	-30.136	-3.140	 0 	 0 	 0
	 	474	 pv 	27.958	-31.154	-4.710	 0 	 0 	 0
	 	475	 pv 	30.282	-27.866	-4.710	 0 	 0 	 0
	 	476	 pv 	32.522	-28.884	-3.140	 0 	 0 	 0
	 	477	 pv 	34.678	-30.136	-3.140	 0 	 0 	 0
	 	478	 pv 	32.438	-31.154	-4.710	 0 	 0 	 0
	 	479	 pv 	34.762	-27.866	-4.710	 0 	 0 	 0
	 	480	 pv 	1.162	-33.424	-3.140	 0 	 0 	 0
	 	481	 pv 	3.318	-34.676	-3.140	 0 	 0 	 0
	 	482	 pv 	1.078	-35.694	-4.710	 0 	 0 	 0
	 	483	 pv 	3.402	-32.406	-4.710	 0 	 0 	 0
	 	484	 pv 	5.642	-33.424	-3.140	 0 	 0 	 0
	 	485	 pv 	7.798	-34.676	-3.140	 0 	 0 	 0
	 	486	 pv 	5.558	-35.694	-4.710	 0 	 0 	 0
	 	487	 pv 	7.882	-32.406	-4.710	 0 	 0 	 0
	 	488	 pv 	10.122	-33.424	-3.140	 0 	 0 	 0
	 	489	 pv 	12.278	-34.676	-3.140	 0 	 0 	 0
	 	490	 pv 	10.038	-35.694	-4.710	 0 	 0 	 0
	 	491	 pv 	12.362	-32.406	-4.710	 0 	 0 	 0
	 	492	 pv 	14.602	-33.424	-3.140	 0 	 0 	 0
	 	493	 pv 	16.758	-34.676	-3.140	 0 	 0 	 0
	 	494	 pv 	14.518	-35.694	-4.710	 0 	 0 	 0
	 	495	 pv 	16.842	-32.406	-4.710	 0 	 0 	 0
	 	496	 pv 	19.082	-33.424	-3.140	 0 	 0 	 0
	 	497	 pv 	21.238	-34.676	-3.140	 0 	 0 	 0
	 	498	 pv 	18.998	-35.694	-4.710	 0 	 0 	 0
	 	499	 pv 	21.322	-32.406	-4.710	 0 	 0 	 0
	 	500	 pv 	23.562	-33.424	-3.140	 0 	 0 	 0
	 	501	 pv 	25.718	-34.676	-3.140	 0 	 0 	 0
	 	502	 pv 	23.478	-35.694	-4.710	 0 	 0 	 0
	 	503	 pv 	25.802	-32.406	-4.710	 0 	 0 	 0
	 	504	 pv 	28.042	-33.424	-3.140	 0 	 0 	 0
	 	505	 pv 	30.198	-34.676	-3.140	 0 	 0 	 0
	 	506	 pv 	27.958	-35.694	-4.710	 0 	 0 	 0
	 	507	 pv 	30.282	-32.406	-4.710	 0 	 0 	 0
	 	508	 pv 	32.522	-33.424	-3.140	 0 	 0 	 0
	 	509	 pv 	34.678	-34.676	-3.140	 0 	 0 	 0
	 	510	 pv 	32.438	-35.694	-4.710	 0 	 0 	 0
	 	511	 pv 	34.762	-32.406	-4.710	 0 	 0 	 0
	 	512	 pv 	1.162	-1.644	-6.280	 0 	 0 	 0
	 	513	 pv 	3.318	-2.896	-6.280	 0 	 0 	 0
	 	514	 pv 	1.078	-3.914	-7.850	 0 	 0 	 0
	 	515	 pv 	3.402	-0.626	-7.850	 0 	 0 	 0
	 	516	 pv 	5.642	-1.644	-6.280	 0 	 0 	 0
	 	517	 pv 	7.798	-2.896	-6.280	 0 	 0 	 0
	 	518	 pv 	5.558	-3.914	-7.850	 0 	 0 	 0
	 	519	 pv 	7.882	-0.626	-7.850	 0 	 0 	 0
	 	520	 pv 	10.122	-1.644	-6.280	 0 	 0 	 0
	 	521	 pv 	12.278	-2.896	-6.280	 0 	 0 	 0
	 	522	 pv 	10.038	-3.914	-7.850	 0 	 0 	 0
	 	523	 pv 	12.362	-0.626	-7.850	 0 	 0 	 0
	 	524	 pv 	14.602	-1.644	-6.280	 0 	 0 	 0
	 	525	 pv 	16.758	-2.896	-6.280	 0 	 0 	 0
	 	526	 pv 	14.518	-3.914	-7.850	 0 	 0 	 0
	 	527	 pv 	16.842	-0.626	-7.850	 0 	 0 	 0
	 	528	 pv 	19.082	-1.644	-6.280	 0 	 0 	 0
	 	529	 pv 	21.238	-2.896	-6.280	 0 	 0 	 0
	 	530	 pv 	18.998	-3.914	-7.850	 0 	 0 	 0
	 	531	 pv 	21.322	-0.626	-7.850	 0 	 0 	 0
	 	532	 pv 	23.562	-1.644	-6.280	 0 	 0 	 0
	 	533	 pv 	25.718	-2.896	-6.280	 0 	 0 	 0
	 	534	 pv 	23.478	-3.914	-7.850	 0 	 0 	 0
	 	535	 pv 	25.802	-0.626	-7.850	 0 	 0 	 0
	 	536	 pv 	28.042	-1.644	-6.280	 0 	 0 	 0
	 	537	 pv 	30.198	-2.896	-6.280	 0 	 0 	 0
	 	538	 pv 	27.958	-3.914	-7.850	 0 	 0 	 0
	 	539	 pv 	30.282	-0.626	-7.850	 0 	 0 	 0
	 	540	 pv 	32.522	-1.644	-6.280	 0 	 0 	 0
	 	541	 pv 	34.678	-2.896	-6.280	 0 	 0 	 0
	 	542	 pv 	32.438	-3.914	-7.850	 0 	 0 	 0
	 	543	 pv 	34.762	-0.626	-7.850	 0 	 0 	 0
	 	544	 pv 	1.162	-6.184	-6.280	 0 	 0 	 0
	 	545	 pv 	3.318	-7.436	-6.280	 0 	 0 	 0
	 	546	 pv 	1.078	-8.454	-7.850	 0 	 0 	 0
	 	547	 pv 	3.402	-5.166	-7.850	 0 	 0 	 0
	 	548	 pv 	5.642	-6.184	-6.280	 0 	 0 	 0
	 	549	 pv 	7.798	-7.436	-6.280	 0 	 0 	 0
	 	550	 pv 	5.558	-8.454	-7.850	 0 	 0 	 0
	 	551	 pv 	7.882	-5.166	-7.850	 0 	 0 	 0
	 	552	 pv 	10.122	-6.184	-6.280	 0 	 0 	 0
	 	553	 pv 	12.278	-7.436	-6.280	 0 	 0 	 0
	 	554	 pv 	10.038	-8.454	-7.850	 0 	 0 	 0
	 	555	 pv 	12.362	-5.166	-7.850	 0 	 0 	 0
	 	556	 pv 	14.602	-6.184	-6.280	 0 	 0 	 0
	 	557	 pv 	16.758	-7.436	-6.280	 0 	 0 	 0
	 	558	 pv 	14.518	-8.454	-7.850	 0 	 0 	 0
	 	559	 pv 	16.842	-5.166	-7.850	 0 	 0 	 0
	 	560	 pv 	19.082	-6.184	-6.280	 0 	 0 	 0
	 	561	 pv 	21.238	-7.436	-6.280	 0 	 0 	 0
	 	562	 pv 	18.998	-8.454	-7.850	 0 	 0 	 0
	 	563	 pv 	21.322	-5.166	-7.850	 0 	 0 	 0
	 	564	 pv 	23.562	-6.184	-6.280	 0 	 0 	 0
	 	565	 pv 	25.718	-7.436	-6.280	 0 	 0 	 0
	 	566	 pv 	23.478	-8.454	-7.850	 0 	 0 	 0
	 	567	 pv 	25.802	-5.166	-7.850	 0 	 0 	 0
	 	568	 pv 	28.042	-6.184	-6.280	 0 	 0 	 0
	 	569	 pv 	30.198	-7.436	-6.280	 0 	 0 	 0
	 	570	 pv 	27.958	-8.454	-7.850	 0 	 0 	 0
	 	571	 pv 	30.282	-5.166	-7.850	 0 	 0 	 0
	 	572	 pv 	32.522	-6.184	-6.280	 0 	 0 	 0
	 	573	 pv 	34.678	-7.436	-6.280	 0 	 0 	 0
	 	574	 pv 	32.438	-8.454	-7.850	 0 	 0 	 0
	 	575	 pv 	34.762	-5.166	-7.850	 0 	 0 	 0
	 	576	 pv 	1.162	-10.724	-6.280	 0 	 0 	 0
	 	577	 pv 	3.318	-11.976	-6.280	 0 	 0 	 0
	 	578	 pv 	1.078	-12.994	-7.850	 0 	 0 	 0
	 	579	 pv 	3.402	-9.706	-7.850	 0 	 0 	 0
	 	580	 pv 	5.642	-10.724	-6.280	 0 	 0 	 0
	 	581	 pv 	7.798	-11.976	-6.280	 0 	 0 	 0
	 	582	 pv 	5.558	-12.994	-7.850	 0 	 0 	 0
	 	583	 pv 	7.882	-9.706	-7.850	 0 	 0 	 0
	 	584	 pv 	10.122	-10.724	-6.280	 0 	 0 	 0
	 	585	 pv 	12.278	-11.976	-6.280	 0 	 0 	 0
	 	586	 pv 	10.038	-12.994	-7.850	 0 	 0 	 0
	 	587	 pv 	12.362	-9.706	-7.850	 0 	 0 	 0
	 	588	 pv 	14.602	-10.724	-6.280	 0 	 0 	 0
	 	589	 pv 	16.758	-11.976	-6.280	 0 	 0 	 0
	 	590	 pv 	14.518	-12.994	-7.850	 0 	 0 	 0
	 	591	 pv 	16.842	-9.706	-7.850	 0 	 0 	 0
	 	592	 pv 	19.082	-10.724	-6.280	 0 	 0 	 0
	 	593	 pv 	21.238	-11.976	-6.280	 0 	 0 	 0
	 	594	 pv 	18.998	-12.994	-7.850	 0 	 0 	 0
	 	595	 pv 	21.322	-9.706	-7.850	 0 	 0 	 0
	 	596	 pv 	23.562	-10.724	-6.280	 0 	 0 	 0
	 	597	 pv 	25.718	-11.976	-6.280	 0 	 0 	 0
	 	598	 pv 	23.478	-12.994	-7.850	 0 	 0 	 0
	 	599	 pv 	25.802	-9.706	-7.850	 0 	 0 	 0
	 	600	 pv 	28.042	-10.724	-6.280	 0 	 0 	 0
	 	601	 pv 	30.198	-11.976	-6.280	 0 	 0 	 0
	 	602	 pv 	27.958	-12.994	-7.850	 0 	 0 	 0
	 	603	 pv 	30.282	-9.706	-7.850	 0 	 0 	 0
	 	604	 pv 	32.522	-10.724	-6.280	 0 	 0 	 0
	 	605	 pv 	34.678	-11.976	-6.280	 0 	 0 	 0
	 	606	 pv 	32.438	-12.994	-7.850	 0 	 0 	 0
	 	607	 pv 	34.762	-9.706	-7.850	 0 	 0 	 0
	 	608	 pv 	1.162	-15.264	-6.280	 0 	 0 	 0
	 	609	 pv 	3.318	-16.516	-6.280	 0 	 0 	 0
	 	610	 pv 	1.078	-17.534	-7.850	 0 	 0 	 0
	 	611	 pv 	3.402	-14.246	-7.850	 0 	 0 	 0
	 	612	 pv 	5.642	-15.264	-6.280	 0 	 0 	 0
	 	613	 pv 	7.798	-16.516	-6.280	 0 	 0 	 0
	 	614	 pv 	5.558	-17.534	-7.850	 0 	 0 	 0
	 	615	 pv 	7.882	-14.246	-7.850	 0 	 0 	 0
	 	616	 pv 	10.122	-15.264	-6.280	 0 	 0 	 0
	 	617	 pv 	12.278	-16.516	-6.280	 0 	 0 	 0
	 	618	 pv 	10.038	-17.534	-7.850	 0 	 0 	 0
	 	619	 pv 	12.362	-14.246	-7.850	 0 	 0 	 0
	 	620	 pv 	14.602	-15.264	-6.280	 0 	 0 	 0
	 	621	 pv 	16.758	-16.516	-6.280	 0 	 0 	 0
	 	622	 pv 	14.518	-17.534	-7.850	 0 	 0 	 0
	 	623	 pv 	16.842	-14.246	-7.850	 0 	 0 	 0
	 	624	 pv 	19.082	-15.264	-6.280	 0 	 0 	 0
	 	625	 pv 	21.238	-16.516	-6.280	 0 	 0 	 0
	 	626	 pv 	18.998	-17.534	-7.850	 0 	 0 	 0
	 	627	 pv 	21.322	-14.246	-7.850	 0 	 0 	 0
	 	628	 pv 	23.562	-15.264	-6.280	 0 	 0 	 0
	 	629	 pv 	25.718	-16.516	-6.280	 0 	 0 	 0
	 	630	 pv 	23.478	-17.534	-7.850	 0 	 0 	 0
	 	631	 pv 	25.802	-14.246	-7.850	 0 	 0 	 0
	 	632	 pv 	28.042	-15.264	-6.280	 0 	 0 	 0
	 	633	 pv 	30.198	-16.516	-6.280	 0 	 0 	 0
	 	634	 pv 	27.958	-17.534	-7.850	 0 	 0 	 0
	 	635	 pv 	30.282	-14.246	-7.850	 0 	 0 	 0
	 	636	 pv 	32.522	-15.264	-6.280	 0 	 0 	 0
	 	637	 pv 	34.678	-16.516	-6.280	 0 	 0 	 0
	 	638	 pv 	32.438	-17.534	-7.850	 0 	 0 	 0
	 	639	 pv 	34.762	-14.246	-7.850	 0 	 0 	 0
	 	640	 pv 	1.162	-19.804	-6.280	 0 	 0 	 0
	 	641	 pv 	3.318	-21.056	-6.280	 0 	 0 	 0
	 	642	 pv 	1.078	-22.074	-7.850	 0 	 0 	 0
	 	643	 pv 	3.402	-18.786	-7.850	 0 	 0 	 0
	 	644	 pv 	5.642	-19.804	-6.280	 0 	 0 	 0
	 	645	 pv 	7.798	-21.056	-6.280	 0 	 0 	 0
	 	646	 pv 	5.558	-22.074	-7.850	 0 	 0 	 0
	 	647	 pv 	7.882	-18.786	-7.850	 0 	 0 	 0
	 	648	 pv 	10.122	-19.804	-6.280	 0 	 0 	 0
	 	649	 pv 	12.278	-21.056	-6.280	 0 	 0 	 0
	 	650	 pv 	10.038	-22.074	-7.850	 0 	 0 	 0
	 	651	 pv 	12.362	-18.786	-7.850	 0 	 0 	 0
	 	652	 pv 	14.602	-19.804	-6.280	 0 	 0 	 0
	 	653	 pv 	16.758	-21.056	-6.280	 0 	 0 	 0
	 	654	 pv 	14.518	-22.074	-7.850	 0 	 0 	 0
	 	655	 pv 	16.842	-18.786	-7.850	 0 	 0 	 0
	 	656	 pv 	19.082	-19.804	-6.280	 0 	 0 	 0