<OpenMD version=1>
  <MetaData>
  
molecule{
  name = "Ti";
  
  atom[0]{
     type="Ti_FQ";
     position( 0.0, 0.0, 0.0 );
  }
}
molecule{
  name = "O";
  
  atom[0]{
     type="O_FQ";
     position( 0.0, 0.0, 0.0 );
  }
}

component{
  type = "O";
  nMol = 3780;
}
component{
  type = "Ti";
  nMol = 2520;
}
flucQ {
  propagator = "Damped";
  targetTemp = 1;
  dragCoefficient = 1;
  doInitialOptimization = false;
}

forceField = "DR-EAM";
forceFieldFileName = "DR-EAM.v2.frc";

outputFluctuatingCharges = true;
outputElectricField = true;
outputDensity = true;

ensemble = NVE;
dt = 0.1;
runTime = 1;
sampleTime = 0.1;
statusTime = 0.1;


cutoffMethod = "shifted_force";
cutoffRadius = 12;
electrostaticScreeningMethod = "DAMPED";
dampingAlpha = 0.105;

statFileFormat = "TIME|TOTAL_ENERGY|POTENTIAL_ENERGY|KINETIC_ENERGY|TEMPERATURE|PRESSURE|VOLUME|CONSERVED_QUANTITY|SYSTEM_DIPOLE";

  </MetaData>
  <Snapshot>
    <FrameData>
        Time: 0
        Hmat: {{ 44.39246, 0, 0 }, { 0, 35.882, 0.0}, { 0, 0, 41.634 }}
  Thermostat: 0, 0
    Barostat: {{ 0, 0, 0 }, { 0, 0, 0 }, { 0, 0, 0 }}
    </FrameData>
    <StuntDoubles>
	0	pv	0.100500	1.766700	12.721500	0 0 0
	1	pv	0.100500	1.766700	26.599500	0 0 0
	2	pv	0.100500	1.766700	40.477500	0 0 0
	3	pv	0.100500	3.359300	5.782500	0 0 0
	4	pv	0.100500	3.359300	19.660500	0 0 0
	5	pv	0.100500	3.359300	33.538500	0 0 0
	6	pv	0.100500	6.892700	12.721500	0 0 0
	7	pv	0.100500	6.892700	26.599500	0 0 0
	8	pv	0.100500	6.892700	40.477500	0 0 0
	9	pv	0.100500	8.485300	5.782500	0 0 0
	10	pv	0.100500	8.485300	19.660500	0 0 0
	11	pv	0.100500	8.485300	33.538500	0 0 0
	12	pv	0.100500	12.018700	12.721500	0 0 0
	13	pv	0.100500	12.018700	26.599500	0 0 0
	14	pv	0.100500	12.018700	40.477500	0 0 0
	15	pv	0.100500	13.611300	5.782500	0 0 0
	16	pv	0.100500	13.611300	19.660500	0 0 0
	17	pv	0.100500	13.611300	33.538500	0 0 0
	18	pv	0.100500	17.144700	12.721500	0 0 0
	19	pv	0.100500	17.144700	26.599500	0 0 0
	20	pv	0.100500	17.144700	40.477500	0 0 0
	21	pv	0.100500	18.737300	5.782500	0 0 0
	22	pv	0.100500	18.737300	19.660500	0 0 0
	23	pv	0.100500	18.737300	33.538500	0 0 0
	24	pv	0.100500	22.270700	12.721500	0 0 0
	25	pv	0.100500	22.270700	26.599500	0 0 0
	26	pv	0.100500	22.270700	40.477500	0 0 0
	27	pv	0.100500	23.863300	5.782500	0 0 0
	28	pv	0.100500	23.863300	19.660500	0 0 0
	29	pv	0.100500	23.863300	33.538500	0 0 0
	30	pv	0.100500	27.396700	12.721500	0 0 0
	31	pv	0.100500	27.396700	26.599500	0 0 0
	32	pv	0.100500	27.396700	40.477500	0 0 0
	33	pv	0.100500	28.989300	5.782500	0 0 0
	34	pv	0.100500	28.989300	19.660500	0 0 0
	35	pv	0.100500	28.989300	33.538500	0 0 0
	36	pv	0.100500	32.522700	12.721500	0 0 0
	37	pv	0.100500	32.522700	26.599500	0 0 0
	38	pv	0.100500	32.522700	40.477500	0 0 0
	39	pv	0.100500	34.115300	5.782500	0 0 0
	40	pv	0.100500	34.115300	19.660500	0 0 0
	41	pv	0.100500	34.115300	33.538500	0 0 0
	42	pv	1.379300	0.796300	10.408500	0 0 0
	43	pv	1.379300	0.796300	24.286500	0 0 0
	44	pv	1.379300	0.796300	38.164500	0 0 0
	45	pv	1.379300	4.329700	3.469500	0 0 0
	46	pv	1.379300	4.329700	17.347500	0 0 0
	47	pv	1.379300	4.329700	31.225500	0 0 0
	48	pv	1.379300	5.922300	10.408500	0 0 0
	49	pv	1.379300	5.922300	24.286500	0 0 0
	50	pv	1.379300	5.922300	38.164500	0 0 0
	51	pv	1.379300	9.455700	3.469500	0 0 0
	52	pv	1.379300	9.455700	17.347500	0 0 0
	53	pv	1.379300	9.455700	31.225500	0 0 0
	54	pv	1.379300	11.048300	10.408500	0 0 0
	55	pv	1.379300	11.048300	24.286500	0 0 0
	56	pv	1.379300	11.048300	38.164500	0 0 0
	57	pv	1.379300	14.581700	3.469500	0 0 0
	58	pv	1.379300	14.581700	17.347500	0 0 0
	59	pv	1.379300	14.581700	31.225500	0 0 0
	60	pv	1.379300	16.174300	10.408500	0 0 0
	61	pv	1.379300	16.174300	24.286500	0 0 0
	62	pv	1.379300	16.174300	38.164500	0 0 0
	63	pv	1.379300	19.707700	3.469500	0 0 0
	64	pv	1.379300	19.707700	17.347500	0 0 0
	65	pv	1.379300	19.707700	31.225500	0 0 0
	66	pv	1.379300	21.300300	10.408500	0 0 0
	67	pv	1.379300	21.300300	24.286500	0 0 0
	68	pv	1.379300	21.300300	38.164500	0 0 0
	69	pv	1.379300	24.833700	3.469500	0 0 0
	70	pv	1.379300	24.833700	17.347500	0 0 0
	71	pv	1.379300	24.833700	31.225500	0 0 0
	72	pv	1.379300	26.426300	10.408500	0 0 0
	73	pv	1.379300	26.426300	24.286500	0 0 0
	74	pv	1.379300	26.426300	38.164500	0 0 0
	75	pv	1.379300	29.959700	3.469500	0 0 0
	76	pv	1.379300	29.959700	17.347500	0 0 0
	77	pv	1.379300	29.959700	31.225500	0 0 0
	78	pv	1.379300	31.552300	10.408500	0 0 0
	79	pv	1.379300	31.552300	24.286500	0 0 0
	80	pv	1.379300	31.552300	38.164500	0 0 0
	81	pv	1.379300	35.085700	3.469500	0 0 0
	82	pv	1.379300	35.085700	17.347500	0 0 0
	83	pv	1.379300	35.085700	31.225500	0 0 0
	84	pv	1.479700	0.970400	5.782500	0 0 0
	85	pv	1.479700	0.970400	19.660500	0 0 0
	86	pv	1.479700	0.970400	33.538500	0 0 0
	87	pv	1.479700	4.155600	12.721500	0 0 0
	88	pv	1.479700	4.155600	26.599500	0 0 0
	89	pv	1.479700	4.155600	40.477500	0 0 0
	90	pv	1.479700	6.096400	5.782500	0 0 0
	91	pv	1.479700	6.096400	19.660500	0 0 0
	92	pv	1.479700	6.096400	33.538500	0 0 0
	93	pv	1.479700	9.281600	12.721500	0 0 0
	94	pv	1.479700	9.281600	26.599500	0 0 0
	95	pv	1.479700	9.281600	40.477500	0 0 0
	96	pv	1.479700	11.222400	5.782500	0 0 0
	97	pv	1.479700	11.222400	19.660500	0 0 0
	98	pv	1.479700	11.222400	33.538500	0 0 0
	99	pv	1.479700	14.407600	12.721500	0 0 0
	100	pv	1.479700	14.407600	26.599500	0 0 0
	101	pv	1.479700	14.407600	40.477500	0 0 0
	102	pv	1.479700	16.348400	5.782500	0 0 0
	103	pv	1.479700	16.348400	19.660500	0 0 0
	104	pv	1.479700	16.348400	33.538500	0 0 0
	105	pv	1.479700	19.533600	12.721500	0 0 0
	106	pv	1.479700	19.533600	26.599500	0 0 0
	107	pv	1.479700	19.533600	40.477500	0 0 0
	108	pv	1.479700	21.474400	5.782500	0 0 0
	109	pv	1.479700	21.474400	19.660500	0 0 0
	110	pv	1.479700	21.474400	33.538500	0 0 0
	111	pv	1.479700	24.659600	12.721500	0 0 0
	112	pv	1.479700	24.659600	26.599500	0 0 0
	113	pv	1.479700	24.659600	40.477500	0 0 0
	114	pv	1.479700	26.600400	5.782500	0 0 0
	115	pv	1.479700	26.600400	19.660500	0 0 0
	116	pv	1.479700	26.600400	33.538500	0 0 0
	117	pv	1.479700	29.785600	12.721500	0 0 0
	118	pv	1.479700	29.785600	26.599500	0 0 0
	119	pv	1.479700	29.785600	40.477500	0 0 0
	120	pv	1.479700	31.726400	5.782500	0 0 0
	121	pv	1.479700	31.726400	19.660500	0 0 0
	122	pv	1.479700	31.726400	33.538500	0 0 0
	123	pv	1.479700	34.911600	12.721500	0 0 0
	124	pv	1.479700	34.911600	26.599500	0 0 0
	125	pv	1.479700	34.911600	40.477500	0 0 0
	126	pv	1.580200	0.796300	1.156500	0 0 0
	127	pv	1.580200	0.796300	15.034500	0 0 0
	128	pv	1.580200	0.796300	28.912500	0 0 0
	129	pv	1.580200	4.329700	8.095500	0 0 0
	130	pv	1.580200	4.329700	21.973500	0 0 0
	131	pv	1.580200	4.329700	35.851500	0 0 0
	132	pv	1.580200	5.922300	1.156500	0 0 0
	133	pv	1.580200	5.922300	15.034500	0 0 0
	134	pv	1.580200	5.922300	28.912500	0 0 0
	135	pv	1.580200	9.455700	8.095500	0 0 0
	136	pv	1.580200	9.455700	21.973500	0 0 0
	137	pv	1.580200	9.455700	35.851500	0 0 0
	138	pv	1.580200	11.048300	1.156500	0 0 0
	139	pv	1.580200	11.048300	15.034500	0 0 0
	140	pv	1.580200	11.048300	28.912500	0 0 0
	141	pv	1.580200	14.581700	8.095500	0 0 0
	142	pv	1.580200	14.581700	21.973500	0 0 0
	143	pv	1.580200	14.581700	35.851500	0 0 0
	144	pv	1.580200	16.174300	1.156500	0 0 0
	145	pv	1.580200	16.174300	15.034500	0 0 0
	146	pv	1.580200	16.174300	28.912500	0 0 0
	147	pv	1.580200	19.707700	8.095500	0 0 0
	148	pv	1.580200	19.707700	21.973500	0 0 0
	149	pv	1.580200	19.707700	35.851500	0 0 0
	150	pv	1.580200	21.300300	1.156500	0 0 0
	151	pv	1.580200	21.300300	15.034500	0 0 0
	152	pv	1.580200	21.300300	28.912500	0 0 0
	153	pv	1.580200	24.833700	8.095500	0 0 0
	154	pv	1.580200	24.833700	21.973500	0 0 0
	155	pv	1.580200	24.833700	35.851500	0 0 0
	156	pv	1.580200	26.426300	1.156500	0 0 0
	157	pv	1.580200	26.426300	15.034500	0 0 0
	158	pv	1.580200	26.426300	28.912500	0 0 0
	159	pv	1.580200	29.959700	8.095500	0 0 0
	160	pv	1.580200	29.959700	21.973500	0 0 0
	161	pv	1.580200	29.959700	35.851500	0 0 0
	162	pv	1.580200	31.552300	1.156500	0 0 0
	163	pv	1.580200	31.552300	15.034500	0 0 0
	164	pv	1.580200	31.552300	28.912500	0 0 0
	165	pv	1.580200	35.085700	8.095500	0 0 0
	166	pv	1.580200	35.085700	21.973500	0 0 0
	167	pv	1.580200	35.085700	35.851500	0 0 0
	168	pv	2.859000	1.766700	12.721500	0 0 0
	169	pv	2.859000	1.766700	26.599500	0 0 0
	170	pv	2.859000	1.766700	40.477500	0 0 0
	171	pv	2.859000	3.359300	5.782500	0 0 0
	172	pv	2.859000	3.359300	19.660500	0 0 0
	173	pv	2.859000	3.359300	33.538500	0 0 0
	174	pv	2.859000	6.892700	12.721500	0 0 0
	175	pv	2.859000	6.892700	26.599500	0 0 0
	176	pv	2.859000	6.892700	40.477500	0 0 0
	177	pv	2.859000	8.485300	5.782500	0 0 0
	178	pv	2.859000	8.485300	19.660500	0 0 0
	179	pv	2.859000	8.485300	33.538500	0 0 0
	180	pv	2.859000	12.018700	12.721500	0 0 0
	181	pv	2.859000	12.018700	26.599500	0 0 0
	182	pv	2.859000	12.018700	40.477500	0 0 0
	183	pv	2.859000	13.611300	5.782500	0 0 0
	184	pv	2.859000	13.611300	19.660500	0 0 0
	185	pv	2.859000	13.611300	33.538500	0 0 0
	186	pv	2.859000	17.144700	12.721500	0 0 0
	187	pv	2.859000	17.144700	26.599500	0 0 0
	188	pv	2.859000	17.144700	40.477500	0 0 0
	189	pv	2.859000	18.737300	5.782500	0 0 0
	190	pv	2.859000	18.737300	19.660500	0 0 0
	191	pv	2.859000	18.737300	33.538500	0 0 0
	192	pv	2.859000	22.270700	12.721500	0 0 0
	193	pv	2.859000	22.270700	26.599500	0 0 0
	194	pv	2.859000	22.270700	40.477500	0 0 0
	195	pv	2.859000	23.863300	5.782500	0 0 0
	196	pv	2.859000	23.863300	19.660500	0 0 0
	197	pv	2.859000	23.863300	33.538500	0 0 0
	198	pv	2.859000	27.396700	12.721500	0 0 0
	199	pv	2.859000	27.396700	26.599500	0 0 0
	200	pv	2.859000	27.396700	40.477500	0 0 0
	201	pv	2.859000	28.989300	5.782500	0 0 0
	202	pv	2.859000	28.989300	19.660500	0 0 0
	203	pv	2.859000	28.989300	33.538500	0 0 0
	204	pv	2.859000	32.522700	12.721500	0 0 0
	205	pv	2.859000	32.522700	26.599500	0 0 0
	206	pv	2.859000	32.522700	40.477500	0 0 0
	207	pv	2.859000	34.115300	5.782500	0 0 0
	208	pv	2.859000	34.115300	19.660500	0 0 0
	209	pv	2.859000	34.115300	33.538500	0 0 0
	210	pv	2.959500	1.592600	8.095500	0 0 0
	211	pv	2.959500	1.592600	21.973500	0 0 0
	212	pv	2.959500	1.592600	35.851500	0 0 0
	213	pv	2.959500	3.533400	1.156500	0 0 0
	214	pv	2.959500	3.533400	15.034500	0 0 0
	215	pv	2.959500	3.533400	28.912500	0 0 0
	216	pv	2.959500	6.718600	8.095500	0 0 0
	217	pv	2.959500	6.718600	21.973500	0 0 0
	218	pv	2.959500	6.718600	35.851500	0 0 0
	219	pv	2.959500	8.659400	1.156500	0 0 0
	220	pv	2.959500	8.659400	15.034500	0 0 0
	221	pv	2.959500	8.659400	28.912500	0 0 0
	222	pv	2.959500	11.844600	8.095500	0 0 0
	223	pv	2.959500	11.844600	21.973500	0 0 0
	224	pv	2.959500	11.844600	35.851500	0 0 0
	225	pv	2.959500	13.785400	1.156500	0 0 0
	226	pv	2.959500	13.785400	15.034500	0 0 0
	227	pv	2.959500	13.785400	28.912500	0 0 0
	228	pv	2.959500	16.970600	8.095500	0 0 0
	229	pv	2.959500	16.970600	21.973500	0 0 0
	230	pv	2.959500	16.970600	35.851500	0 0 0
	231	pv	2.959500	18.911400	1.156500	0 0 0
	232	pv	2.959500	18.911400	15.034500	0 0 0
	233	pv	2.959500	18.911400	28.912500	0 0 0
	234	pv	2.959500	22.096600	8.095500	0 0 0
	235	pv	2.959500	22.096600	21.973500	0 0 0
	236	pv	2.959500	22.096600	35.851500	0 0 0
	237	pv	2.959500	24.037400	1.156500	0 0 0
	238	pv	2.959500	24.037400	15.034500	0 0 0
	239	pv	2.959500	24.037400	28.912500	0 0 0
	240	pv	2.959500	27.222600	8.095500	0 0 0
	241	pv	2.959500	27.222600	21.973500	0 0 0
	242	pv	2.959500	27.222600	35.851500	0 0 0
	243	pv	2.959500	29.163400	1.156500	0 0 0
	244	pv	2.959500	29.163400	15.034500	0 0 0
	245	pv	2.959500	29.163400	28.912500	0 0 0
	246	pv	2.959500	32.348600	8.095500	0 0 0
	247	pv	2.959500	32.348600	21.973500	0 0 0
	248	pv	2.959500	32.348600	35.851500	0 0 0
	249	pv	2.959500	34.289400	1.156500	0 0 0
	250	pv	2.959500	34.289400	15.034500	0 0 0
	251	pv	2.959500	34.289400	28.912500	0 0 0
	252	pv	3.060000	1.766700	3.469500	0 0 0
	253	pv	3.060000	1.766700	17.347500	0 0 0
	254	pv	3.060000	1.766700	31.225500	0 0 0
	255	pv	3.060000	3.359300	10.408500	0 0 0
	256	pv	3.060000	3.359300	24.286500	0 0 0
	257	pv	3.060000	3.359300	38.164500	0 0 0
	258	pv	3.060000	6.892700	3.469500	0 0 0
	259	pv	3.060000	6.892700	17.347500	0 0 0
	260	pv	3.060000	6.892700	31.225500	0 0 0
	261	pv	3.060000	8.485300	10.408500	0 0 0
	262	pv	3.060000	8.485300	24.286500	0 0 0
	263	pv	3.060000	8.485300	38.164500	0 0 0
	264	pv	3.060000	12.018700	3.469500	0 0 0
	265	pv	3.060000	12.018700	17.347500	0 0 0
	266	pv	3.060000	12.018700	31.225500	0 0 0
	267	pv	3.060000	13.611300	10.408500	0 0 0
	268	pv	3.060000	13.611300	24.286500	0 0 0
	269	pv	3.060000	13.611300	38.164500	0 0 0
	270	pv	3.060000	17.144700	3.469500	0 0 0
	271	pv	3.060000	17.144700	17.347500	0 0 0
	272	pv	3.060000	17.144700	31.225500	0 0 0
	273	pv	3.060000	18.737300	10.408500	0 0 0
	274	pv	3.060000	18.737300	24.286500	0 0 0
	275	pv	3.060000	18.737300	38.164500	0 0 0
	276	pv	3.060000	22.270700	3.469500	0 0 0
	277	pv	3.060000	22.270700	17.347500	0 0 0
	278	pv	3.060000	22.270700	31.225500	0 0 0
	279	pv	3.060000	23.863300	10.408500	0 0 0
	280	pv	3.060000	23.863300	24.286500	0 0 0
	281	pv	3.060000	23.863300	38.164500	0 0 0
	282	pv	3.060000	27.396700	3.469500	0 0 0
	283	pv	3.060000	27.396700	17.347500	0 0 0
	284	pv	3.060000	27.396700	31.225500	0 0 0
	285	pv	3.060000	28.989300	10.408500	0 0 0
	286	pv	3.060000	28.989300	24.286500	0 0 0
	287	pv	3.060000	28.989300	38.164500	0 0 0
	288	pv	3.060000	32.522700	3.469500	0 0 0
	289	pv	3.060000	32.522700	17.347500	0 0 0
	290	pv	3.060000	32.522700	31.225500	0 0 0
	291	pv	3.060000	34.115300	10.408500	0 0 0
	292	pv	3.060000	34.115300	24.286500	0 0 0
	293	pv	3.060000	34.115300	38.164500	0 0 0
	294	pv	4.338800	0.796300	1.156500	0 0 0
	295	pv	4.338800	0.796300	15.034500	0 0 0
	296	pv	4.338800	0.796300	28.912500	0 0 0
	297	pv	4.338800	4.329700	8.095500	0 0 0
	298	pv	4.338800	4.329700	21.973500	0 0 0
	299	pv	4.338800	4.329700	35.851500	0 0 0
	300	pv	4.338800	5.922300	1.156500	0 0 0
	301	pv	4.338800	5.922300	15.034500	0 0 0
	302	pv	4.338800	5.922300	28.912500	0 0 0
	303	pv	4.338800	9.455700	8.095500	0 0 0
	304	pv	4.338800	9.455700	21.973500	0 0 0
	305	pv	4.338800	9.455700	35.851500	0 0 0
	306	pv	4.338800	11.048300	1.156500	0 0 0
	307	pv	4.338800	11.048300	15.034500	0 0 0
	308	pv	4.338800	11.048300	28.912500	0 0 0
	309	pv	4.338800	14.581700	8.095500	0 0 0
	310	pv	4.338800	14.581700	21.973500	0 0 0
	311	pv	4.338800	14.581700	35.851500	0 0 0
	312	pv	4.338800	16.174300	1.156500	0 0 0
	313	pv	4.338800	16.174300	15.034500	0 0 0
	314	pv	4.338800	16.174300	28.912500	0 0 0
	315	pv	4.338800	19.707700	8.095500	0 0 0
	316	pv	4.338800	19.707700	21.973500	0 0 0
	317	pv	4.338800	19.707700	35.851500	0 0 0
	318	pv	4.338800	21.300300	1.156500	0 0 0
	319	pv	4.338800	21.300300	15.034500	0 0 0
	320	pv	4.338800	21.300300	28.912500	0 0 0
	321	pv	4.338800	24.833700	8.095500	0 0 0
	322	pv	4.338800	24.833700	21.973500	0 0 0
	323	pv	4.338800	24.833700	35.851500	0 0 0
	324	pv	4.338800	26.426300	1.156500	0 0 0
	325	pv	4.338800	26.426300	15.034500	0 0 0
	326	pv	4.338800	26.426300	28.912500	0 0 0
	327	pv	4.338800	29.959700	8.095500	0 0 0
	328	pv	4.338800	29.959700	21.973500	0 0 0
	329	pv	4.338800	29.959700	35.851500	0 0 0
	330	pv	4.338800	31.552300	1.156500	0 0 0
	331	pv	4.338800	31.552300	15.034500	0 0 0
	332	pv	4.338800	31.552300	28.912500	0 0 0
	333	pv	4.338800	35.085700	8.095500	0 0 0
	334	pv	4.338800	35.085700	21.973500	0 0 0
	335	pv	4.338800	35.085700	35.851500	0 0 0
	336	pv	4.439200	0.970400	10.408500	0 0 0
	337	pv	4.439200	0.970400	24.286500	0 0 0
	338	pv	4.439200	0.970400	38.164500	0 0 0
	339	pv	4.439200	4.155600	3.469500	0 0 0
	340	pv	4.439200	4.155600	17.347500	0 0 0
	341	pv	4.439200	4.155600	31.225500	0 0 0
	342	pv	4.439200	6.096400	10.408500	0 0 0
	343	pv	4.439200	6.096400	24.286500	0 0 0
	344	pv	4.439200	6.096400	38.164500	0 0 0
	345	pv	4.439200	9.281600	3.469500	0 0 0
	346	pv	4.439200	9.281600	17.347500	0 0 0
	347	pv	4.439200	9.281600	31.225500	0 0 0
	348	pv	4.439200	11.222400	10.408500	0 0 0
	349	pv	4.439200	11.222400	24.286500	0 0 0
	350	pv	4.439200	11.222400	38.164500	0 0 0
	351	pv	4.439200	14.407600	3.469500	0 0 0
	352	pv	4.439200	14.407600	17.347500	0 0 0
	353	pv	4.439200	14.407600	31.225500	0 0 0
	354	pv	4.439200	16.348400	10.408500	0 0 0
	355	pv	4.439200	16.348400	24.286500	0 0 0
	356	pv	4.439200	16.348400	38.164500	0 0 0
	357	pv	4.439200	19.533600	3.469500	0 0 0
	358	pv	4.439200	19.533600	17.347500	0 0 0
	359	pv	4.439200	19.533600	31.225500	0 0 0
	360	pv	4.439200	21.474400	10.408500	0 0 0
	361	pv	4.439200	21.474400	24.286500	0 0 0
	362	pv	4.439200	21.474400	38.164500	0 0 0
	363	pv	4.439200	24.659600	3.469500	0 0 0
	364	pv	4.439200	24.659600	17.347500	0 0 0
	365	pv	4.439200	24.659600	31.225500	0 0 0
	366	pv	4.439200	26.600400	10.408500	0 0 0
	367	pv	4.439200	26.600400	24.286500	0 0 0
	368	pv	4.439200	26.600400	38.164500	0 0 0
	369	pv	4.439200	29.785600	3.469500	0 0 0
	370	pv	4.439200	29.785600	17.347500	0 0 0
	371	pv	4.439200	29.785600	31.225500	0 0 0
	372	pv	4.439200	31.726400	10.408500	0 0 0
	373	pv	4.439200	31.726400	24.286500	0 0 0
	374	pv	4.439200	31.726400	38.164500	0 0 0
	375	pv	4.439200	34.911600	3.469500	0 0 0
	376	pv	4.439200	34.911600	17.347500	0 0 0
	377	pv	4.439200	34.911600	31.225500	0 0 0
	378	pv	4.539700	0.796300	5.782500	0 0 0
	379	pv	4.539700	0.796300	19.660500	0 0 0
	380	pv	4.539700	0.796300	33.538500	0 0 0
	381	pv	4.539700	4.329700	12.721500	0 0 0
	382	pv	4.539700	4.329700	26.599500	0 0 0
	383	pv	4.539700	4.329700	40.477500	0 0 0
	384	pv	4.539700	5.922300	5.782500	0 0 0
	385	pv	4.539700	5.922300	19.660500	0 0 0
	386	pv	4.539700	5.922300	33.538500	0 0 0
	387	pv	4.539700	9.455700	12.721500	0 0 0
	388	pv	4.539700	9.455700	26.599500	0 0 0
	389	pv	4.539700	9.455700	40.477500	0 0 0
	390	pv	4.539700	11.048300	5.782500	0 0 0
	391	pv	4.539700	11.048300	19.660500	0 0 0
	392	pv	4.539700	11.048300	33.538500	0 0 0
	393	pv	4.539700	14.581700	12.721500	0 0 0
	394	pv	4.539700	14.581700	26.599500	0 0 0
	395	pv	4.539700	14.581700	40.477500	0 0 0
	396	pv	4.539700	16.174300	5.782500	0 0 0
	397	pv	4.539700	16.174300	19.660500	0 0 0
	398	pv	4.539700	16.174300	33.538500	0 0 0
	399	pv	4.539700	19.707700	12.721500	0 0 0
	400	pv	4.539700	19.707700	26.599500	0 0 0
	401	pv	4.539700	19.707700	40.477500	0 0 0
	402	pv	4.539700	21.300300	5.782500	0 0 0
	403	pv	4.539700	21.300300	19.660500	0 0 0
	404	pv	4.539700	21.300300	33.538500	0 0 0
	405	pv	4.539700	24.833700	12.721500	0 0 0
	406	pv	4.539700	24.833700	26.599500	0 0 0
	407	pv	4.539700	24.833700	40.477500	0 0 0
	408	pv	4.539700	26.426300	5.782500	0 0 0
	409	pv	4.539700	26.426300	19.660500	0 0 0
	410	pv	4.539700	26.426300	33.538500	0 0 0
	411	pv	4.539700	29.959700	12.721500	0 0 0
	412	pv	4.539700	29.959700	26.599500	0 0 0
	413	pv	4.539700	29.959700	40.477500	0 0 0
	414	pv	4.539700	31.552300	5.782500	0 0 0
	415	pv	4.539700	31.552300	19.660500	0 0 0
	416	pv	4.539700	31.552300	33.538500	0 0 0
	417	pv	4.539700	35.085700	12.721500	0 0 0
	418	pv	4.539700	35.085700	26.599500	0 0 0
	419	pv	4.539700	35.085700	40.477500	0 0 0
	420	pv	5.818500	1.766700	3.469500	0 0 0
	421	pv	5.818500	1.766700	17.347500	0 0 0
	422	pv	5.818500	1.766700	31.225500	0 0 0
	423	pv	5.818500	3.359300	10.408500	0 0 0
	424	pv	5.818500	3.359300	24.286500	0 0 0
	425	pv	5.818500	3.359300	38.164500	0 0 0
	426	pv	5.818500	6.892700	3.469500	0 0 0
	427	pv	5.818500	6.892700	17.347500	0 0 0
	428	pv	5.818500	6.892700	31.225500	0 0 0
	429	pv	5.818500	8.485300	10.408500	0 0 0
	430	pv	5.818500	8.485300	24.286500	0 0 0
	431	pv	5.818500	8.485300	38.164500	0 0 0
	432	pv	5.818500	12.018700	3.469500	0 0 0
	433	pv	5.818500	12.018700	17.347500	0 0 0
	434	pv	5.818500	12.018700	31.225500	0 0 0
	435	pv	5.818500	13.611300	10.408500	0 0 0
	436	pv	5.818500	13.611300	24.286500	0 0 0
	437	pv	5.818500	13.611300	38.164500	0 0 0
	438	pv	5.818500	17.144700	3.469500	0 0 0
	439	pv	5.818500	17.144700	17.347500	0 0 0
	440	pv	5.818500	17.144700	31.225500	0 0 0
	441	pv	5.818500	18.737300	10.408500	0 0 0
	442	pv	5.818500	18.737300	24.286500	0 0 0
	443	pv	5.818500	18.737300	38.164500	0 0 0
	444	pv	5.818500	22.270700	3.469500	0 0 0
	445	pv	5.818500	22.270700	17.347500	0 0 0
	446	pv	5.818500	22.270700	31.225500	0 0 0
	447	pv	5.818500	23.863300	10.408500	0 0 0
	448	pv	5.818500	23.863300	24.286500	0 0 0
	449	pv	5.818500	23.863300	38.164500	0 0 0
	450	pv	5.818500	27.396700	3.469500	0 0 0
	451	pv	5.818500	27.396700	17.347500	0 0 0
	452	pv	5.818500	27.396700	31.225500	0 0 0
	453	pv	5.818500	28.989300	10.408500	0 0 0
	454	pv	5.818500	28.989300	24.286500	0 0 0
	455	pv	5.818500	28.989300	38.164500	0 0 0
	456	pv	5.818500	32.522700	3.469500	0 0 0
	457	pv	5.818500	32.522700	17.347500	0 0 0
	458	pv	5.818500	32.522700	31.225500	0 0 0
	459	pv	5.818500	34.115300	10.408500	0 0 0
	460	pv	5.818500	34.115300	24.286500	0 0 0
	461	pv	5.818500	34.115300	38.164500	0 0 0
	462	pv	5.919000	1.592600	12.721500	0 0 0
	463	pv	5.919000	1.592600	26.599500	0 0 0
	464	pv	5.919000	1.592600	40.477500	0 0 0
	465	pv	5.919000	3.533400	5.782500	0 0 0
	466	pv	5.919000	3.533400	19.660500	0 0 0
	467	pv	5.919000	3.533400	33.538500	0 0 0
	468	pv	5.919000	6.718600	12.721500	0 0 0
	469	pv	5.919000	6.718600	26.599500	0 0 0
	470	pv	5.919000	6.718600	40.477500	0 0 0
	471	pv	5.919000	8.659400	5.782500	0 0 0
	472	pv	5.919000	8.659400	19.660500	0 0 0
	473	pv	5.919000	8.659400	33.538500	0 0 0
	474	pv	5.919000	11.844600	12.721500	0 0 0
	475	pv	5.919000	11.844600	26.599500	0 0 0
	476	pv	5.919000	11.844600	40.477500	0 0 0
	477	pv	5.919000	13.785400	5.782500	0 0 0
	478	pv	5.919000	13.785400	19.660500	0 0 0
	479	pv	5.919000	13.785400	33.538500	0 0 0
	480	pv	5.919000	16.970600	12.721500	0 0 0
	481	pv	5.919000	16.970600	26.599500	0 0 0
	482	pv	5.919000	16.970600	40.477500	0 0 0
	483	pv	5.919000	18.911400	5.782500	0 0 0
	484	pv	5.919000	18.911400	19.660500	0 0 0
	485	pv	5.919000	18.911400	33.538500	0 0 0
	486	pv	5.919000	22.096600	12.721500	0 0 0
	487	pv	5.919000	22.096600	26.599500	0 0 0
	488	pv	5.919000	22.096600	40.477500	0 0 0
	489	pv	5.919000	24.037400	5.782500	0 0 0
	490	pv	5.919000	24.037400	19.660500	0 0 0
	491	pv	5.919000	24.037400	33.538500	0 0 0
	492	pv	5.919000	27.222600	12.721500	0 0 0
	493	pv	5.919000	27.222600	26.599500	0 0 0
	494	pv	5.919000	27.222600	40.477500	0 0 0
	495	pv	5.919000	29.163400	5.782500	0 0 0
	496	pv	5.919000	29.163400	19.660500	0 0 0
	497	pv	5.919000	29.163400	33.538500	0 0 0
	498	pv	5.919000	32.348600	12.721500	0 0 0
	499	pv	5.919000	32.348600	26.599500	0 0 0
	500	pv	5.919000	32.348600	40.477500	0 0 0
	501	pv	5.919000	34.289400	5.782500	0 0 0
	502	pv	5.919000	34.289400	19.660500	0 0 0
	503	pv	5.919000	34.289400	33.538500	0 0 0
	504	pv	6.019500	1.766700	8.095500	0 0 0
	505	pv	6.019500	1.766700	21.973500	0 0 0
	506	pv	6.019500	1.766700	35.851500	0 0 0
	507	pv	6.019500	3.359300	1.156500	0 0 0
	508	pv	6.019500	3.359300	15.034500	0 0 0
	509	pv	6.019500	3.359300	28.912500	0 0 0
	510	pv	6.019500	6.892700	8.095500	0 0 0
	511	pv	6.019500	6.892700	21.973500	0 0 0
	512	pv	6.019500	6.892700	35.851500	0 0 0
	513	pv	6.019500	8.485300	1.156500	0 0 0
	514	pv	6.019500	8.485300	15.034500	0 0 0
	515	pv	6.019500	8.485300	28.912500	0 0 0
	516	pv	6.019500	12.018700	8.095500	0 0 0
	517	pv	6.019500	12.018700	21.973500	0 0 0
	518	pv	6.019500	12.018700	35.851500	0 0 0
	519	pv	6.019500	13.611300	1.156500	0 0 0
	520	pv	6.019500	13.611300	15.034500	0 0 0
	521	pv	6.019500	13.611300	28.912500	0 0 0
	522	pv	6.019500	17.144700	8.095500	0 0 0
	523	pv	6.019500	17.144700	21.973500	0 0 0
	524	pv	6.019500	17.144700	35.851500	0 0 0
	525	pv	6.019500	18.737300	1.156500	0 0 0
	526	pv	6.019500	18.737300	15.034500	0 0 0
	527	pv	6.019500	18.737300	28.912500	0 0 0
	528	pv	6.019500	22.270700	8.095500	0 0 0
	529	pv	6.019500	22.270700	21.973500	0 0 0
	530	pv	6.019500	22.270700	35.851500	0 0 0
	531	pv	6.019500	23.863300	1.156500	0 0 0
	532	pv	6.019500	23.863300	15.034500	0 0 0
	533	pv	6.019500	23.863300	28.912500	0 0 0
	534	pv	6.019500	27.396700	8.095500	0 0 0
	535	pv	6.019500	27.396700	21.973500	0 0 0
	536	pv	6.019500	27.396700	35.851500	0 0 0
	537	pv	6.019500	28.989300	1.156500	0 0 0
	538	pv	6.019500	28.989300	15.034500	0 0 0
	539	pv	6.019500	28.989300	28.912500	0 0 0
	540	pv	6.019500	32.522700	8.095500	0 0 0
	541	pv	6.019500	32.522700	21.973500	0 0 0
	542	pv	6.019500	32.522700	35.851500	0 0 0
	543	pv	6.019500	34.115300	1.156500	0 0 0
	544	pv	6.019500	34.115300	15.034500	0 0 0
	545	pv	6.019500	34.115300	28.912500	0 0 0
	546	pv	7.298300	0.796300	5.782500	0 0 0
	547	pv	7.298300	0.796300	19.660500	0 0 0
	548	pv	7.298300	0.796300	33.538500	0 0 0
	549	pv	7.298300	4.329700	12.721500	0 0 0
	550	pv	7.298300	4.329700	26.599500	0 0 0
	551	pv	7.298300	4.329700	40.477500	0 0 0
	552	pv	7.298300	5.922300	5.782500	0 0 0
	553	pv	7.298300	5.922300	19.660500	0 0 0
	554	pv	7.298300	5.922300	33.538500	0 0 0
	555	pv	7.298300	9.455700	12.721500	0 0 0
	556	pv	7.298300	9.455700	26.599500	0 0 0
	557	pv	7.298300	9.455700	40.477500	0 0 0
	558	pv	7.298300	11.048300	5.782500	0 0 0
	559	pv	7.298300	11.048300	19.660500	0 0 0
	560	pv	7.298300	11.048300	33.538500	0 0 0
	561	pv	7.298300	14.581700	12.721500	0 0 0
	562	pv	7.298300	14.581700	26.599500	0 0 0
	563	pv	7.298300	14.581700	40.477500	0 0 0
	564	pv	7.298300	16.174300	5.782500	0 0 0
	565	pv	7.298300	16.174300	19.660500	0 0 0
	566	pv	7.298300	16.174300	33.538500	0 0 0
	567	pv	7.298300	19.707700	12.721500	0 0 0
	568	pv	7.298300	19.707700	26.599500	0 0 0
	569	pv	7.298300	19.707700	40.477500	0 0 0
	570	pv	7.298300	21.300300	5.782500	0 0 0
	571	pv	7.298300	21.300300	19.660500	0 0 0
	572	pv	7.298300	21.300300	33.538500	0 0 0
	573	pv	7.298300	24.833700	12.721500	0 0 0
	574	pv	7.298300	24.833700	26.599500	0 0 0
	575	pv	7.298300	24.833700	40.477500	0 0 0
	576	pv	7.298300	26.426300	5.782500	0 0 0
	577	pv	7.298300	26.426300	19.660500	0 0 0
	578	pv	7.298300	26.426300	33.538500	0 0 0
	579	pv	7.298300	29.959700	12.721500	0 0 0
	580	pv	7.298300	29.959700	26.599500	0 0 0
	581	pv	7.298300	29.959700	40.477500	0 0 0
	582	pv	7.298300	31.552300	5.782500	0 0 0
	583	pv	7.298300	31.552300	19.660500	0 0 0
	584	pv	7.298300	31.552300	33.538500	0 0 0
	585	pv	7.298300	35.085700	12.721500	0 0 0
	586	pv	7.298300	35.085700	26.599500	0 0 0
	587	pv	7.298300	35.085700	40.477500	0 0 0
	588	pv	7.398700	0.970400	1.156500	0 0 0
	589	pv	7.398700	0.970400	15.034500	0 0 0
	590	pv	7.398700	0.970400	28.912500	0 0 0
	591	pv	7.398700	4.155600	8.095500	0 0 0
	592	pv	7.398700	4.155600	21.973500	0 0 0
	593	pv	7.398700	4.155600	35.851500	0 0 0
	594	pv	7.398700	6.096400	1.156500	0 0 0
	595	pv	7.398700	6.096400	15.034500	0 0 0
	596	pv	7.398700	6.096400	28.912500	0 0 0
	597	pv	7.398700	9.281600	8.095500	0 0 0
	598	pv	7.398700	9.281600	21.973500	0 0 0
	599	pv	7.398700	9.281600	35.851500	0 0 0
	600	pv	7.398700	11.222400	1.156500	0 0 0
	601	pv	7.398700	11.222400	15.034500	0 0 0
	602	pv	7.398700	11.222400	28.912500	0 0 0
	603	pv	7.398700	14.407600	8.095500	0 0 0
	604	pv	7.398700	14.407600	21.973500	0 0 0
	605	pv	7.398700	14.407600	35.851500	0 0 0
	606	pv	7.398700	16.348400	1.156500	0 0 0
	607	pv	7.398700	16.348400	15.034500	0 0 0
	608	pv	7.398700	16.348400	28.912500	0 0 0
	609	pv	7.398700	19.533600	8.095500	0 0 0
	610	pv	7.398700	19.533600	21.973500	0 0 0
	611	pv	7.398700	19.533600	35.851500	0 0 0
	612	pv	7.398700	21.474400	1.156500	0 0 0
	613	pv	7.398700	21.474400	15.034500	0 0 0
	614	pv	7.398700	21.474400	28.912500	0 0 0
	615	pv	7.398700	24.659600	8.095500	0 0 0
	616	pv	7.398700	24.659600	21.973500	0 0 0
	617	pv	7.398700	24.659600	35.851500	0 0 0
	618	pv	7.398700	26.600400	1.156500	0 0 0
	619	pv	7.398700	26.600400	15.034500	0 0 0
	620	pv	7.398700	26.600400	28.912500	0 0 0
	621	pv	7.398700	29.785600	8.095500	0 0 0
	622	pv	7.398700	29.785600	21.973500	0 0 0
	623	pv	7.398700	29.785600	35.851500	0 0 0
	624	pv	7.398700	31.726400	1.156500	0 0 0
	625	pv	7.398700	31.726400	15.034500	0 0 0
	626	pv	7.398700	31.726400	28.912500	0 0 0
	627	pv	7.398700	34.911600	8.095500	0 0 0
	628	pv	7.398700	34.911600	21.973500	0 0 0
	629	pv	7.398700	34.911600	35.851500	0 0 0
	630	pv	7.499200	0.796300	10.408500	0 0 0
	631	pv	7.499200	0.796300	24.286500	0 0 0
	632	pv	7.499200	0.796300	38.164500	0 0 0
	633	pv	7.499200	4.329700	3.469500	0 0 0
	634	pv	7.499200	4.329700	17.347500	0 0 0
	635	pv	7.499200	4.329700	31.225500	0 0 0
	636	pv	7.499200	5.922300	10.408500	0 0 0
	637	pv	7.499200	5.922300	24.286500	0 0 0
	638	pv	7.499200	5.922300	38.164500	0 0 0
	639	pv	7.499200	9.455700	3.469500	0 0 0
	640	pv	7.499200	9.455700	17.347500	0 0 0
	641	pv	7.499200	9.455700	31.225500	0 0 0
	642	pv	7.499200	11.048300	10.408500	0 0 0
	643	pv	7.499200	11.048300	24.286500	0 0 0
	644	pv	7.499200	11.048300	38.164500	0 0 0
	645	pv	7.499200	14.581700	3.469500	0 0 0
	646	pv	7.499200	14.581700	17.347500	0 0 0
	647	pv	7.499200	14.581700	31.225500	0 0 0
	648	pv	7.499200	16.174300	10.408500	0 0 0
	649	pv	7.499200	16.174300	24.286500	0 0 0
	650	pv	7.499200	16.174300	38.164500	0 0 0
	651	pv	7.499200	19.707700	3.469500	0 0 0
	652	pv	7.499200	19.707700	17.347500	0 0 0
	653	pv	7.499200	19.707700	31.225500	0 0 0
	654	pv	7.499200	21.300300	10.408500	0 0 0
	655	pv	7.499200	21.300300	24.286500	0 0 0
	656	pv	7.499200	21.300300	38.164500	0 0 0
	657	pv	7.499200	24.833700	3.469500	0 0 0
	658	pv	7.499200	24.833700	17.347500	0 0 0
	659	pv	7.499200	24.833700	31.225500	0 0 0
	660	pv	7.499200	26.426300	10.408500	0 0 0
	661	pv	7.499200	26.426300	24.286500	0 0 0
	662	pv	7.499200	26.426300	38.164500	0 0 0
	663	pv	7.499200	29.959700	3.469500	0 0 0
	664	pv	7.499200	29.959700	17.347500	0 0 0
	665	pv	7.499200	29.959700	31.225500	0 0 0
	666	pv	7.499200	31.552300	10.408500	0 0 0
	667	pv	7.499200	31.552300	24.286500	0 0 0
	668	pv	7.499200	31.552300	38.164500	0 0 0
	669	pv	7.499200	35.085700	3.469500	0 0 0
	670	pv	7.499200	35.085700	17.347500	0 0 0
	671	pv	7.499200	35.085700	31.225500	0 0 0
	672	pv	8.778000	1.766700	8.095500	0 0 0
	673	pv	8.778000	1.766700	21.973500	0 0 0
	674	pv	8.778000	1.766700	35.851500	0 0 0
	675	pv	8.778000	3.359300	1.156500	0 0 0
	676	pv	8.778000	3.359300	15.034500	0 0 0
	677	pv	8.778000	3.359300	28.912500	0 0 0
	678	pv	8.778000	6.892700	8.095500	0 0 0
	679	pv	8.778000	6.892700	21.973500	0 0 0
	680	pv	8.778000	6.892700	35.851500	0 0 0
	681	pv	8.778000	8.485300	1.156500	0 0 0