<OpenMD version=1>
  <MetaData>
  
molecule{
  name = "Ti";
  
  atom[0]{
     type="Ti_FQ";
     position( 0.0, 0.0, 0.0 );
  }
}
molecule{
  name = "O";
  
  atom[0]{
     type="O_FQ";
     position( 0.0, 0.0, 0.0 );
  }
}

component{
  type = "O";
  nMol = 2560;
}
component{
  type = "Ti";
  nMol = 1536;
}
flucQ {
  propagator = "Damped";
  targetTemp = 1;
  dragCoefficient = 1;
  doInitialOptimization = false;
}

forceField = "DR-EAM";
forceFieldFileName = "DR-EAM.v2.frc";

outputFluctuatingCharges = true;
outputElectricField = true;
outputDensity = true;

ensemble = NVE;
dt = 0.1;
runTime = 1;
sampleTime = 0.1;
statusTime = 0.1;


cutoffMethod = "shifted_force";
cutoffRadius = 12;
electrostaticScreeningMethod = "DAMPED";
dampingAlpha = 0.105;

statFileFormat = "TIME|TOTAL_ENERGY|POTENTIAL_ENERGY|KINETIC_ENERGY|TEMPERATURE|PRESSURE|VOLUME|CONSERVED_QUANTITY|SYSTEM_DIPOLE";

  </MetaData>
  <Snapshot>
    <FrameData>
        Time: 0
        Hmat: {{ 39.008, 0, 0 }, { 0, 30.416, 0 }, { -1.265380972, 0, 37.74679635 }}
  Thermostat: 0, 0
    Barostat: {{ 0, 0, 0 }, { 0, 0, 0 }, { 0, 0, 0 }}
    </FrameData>
    <StuntDoubles>
	0	pv	0.458100	0.000000	7.934800	0 0 0
	1	pv	0.458100	0.000000	17.376800	0 0 0
	2	pv	0.458100	0.000000	26.818800	0 0 0
	3	pv	0.458100	0.000000	36.260800	0 0 0
	4	pv	0.458100	3.802000	7.934800	0 0 0
	5	pv	0.458100	3.802000	17.376800	0 0 0
	6	pv	0.458100	3.802000	26.818800	0 0 0
	7	pv	0.458100	3.802000	36.260800	0 0 0
	8	pv	0.458100	7.604000	7.934800	0 0 0
	9	pv	0.458100	7.604000	17.376800	0 0 0
	10	pv	0.458100	7.604000	26.818800	0 0 0
	11	pv	0.458100	7.604000	36.260800	0 0 0
	12	pv	0.458100	11.406000	7.934800	0 0 0
	13	pv	0.458100	11.406000	17.376800	0 0 0
	14	pv	0.458100	11.406000	26.818800	0 0 0
	15	pv	0.458100	11.406000	36.260800	0 0 0
	16	pv	0.458100	15.208000	7.934800	0 0 0
	17	pv	0.458100	15.208000	17.376800	0 0 0
	18	pv	0.458100	15.208000	26.818800	0 0 0
	19	pv	0.458100	15.208000	36.260800	0 0 0
	20	pv	0.458100	19.010000	7.934800	0 0 0
	21	pv	0.458100	19.010000	17.376800	0 0 0
	22	pv	0.458100	19.010000	26.818800	0 0 0
	23	pv	0.458100	19.010000	36.260800	0 0 0
	24	pv	0.458100	22.812000	7.934800	0 0 0
	25	pv	0.458100	22.812000	17.376800	0 0 0
	26	pv	0.458100	22.812000	26.818800	0 0 0
	27	pv	0.458100	22.812000	36.260800	0 0 0
	28	pv	0.458100	26.614000	7.934800	0 0 0
	29	pv	0.458100	26.614000	17.376800	0 0 0
	30	pv	0.458100	26.614000	26.818800	0 0 0
	31	pv	0.458100	26.614000	36.260800	0 0 0
	32	pv	0.857700	1.901000	3.228700	0 0 0
	33	pv	0.857700	1.901000	12.670700	0 0 0
	34	pv	0.857700	1.901000	22.112700	0 0 0
	35	pv	0.857700	1.901000	31.554700	0 0 0
	36	pv	0.857700	5.703000	3.228700	0 0 0
	37	pv	0.857700	5.703000	12.670700	0 0 0
	38	pv	0.857700	5.703000	22.112700	0 0 0
	39	pv	0.857700	5.703000	31.554700	0 0 0
	40	pv	0.857700	9.505000	3.228700	0 0 0
	41	pv	0.857700	9.505000	12.670700	0 0 0
	42	pv	0.857700	9.505000	22.112700	0 0 0
	43	pv	0.857700	9.505000	31.554700	0 0 0
	44	pv	0.857700	13.307000	3.228700	0 0 0
	45	pv	0.857700	13.307000	12.670700	0 0 0
	46	pv	0.857700	13.307000	22.112700	0 0 0
	47	pv	0.857700	13.307000	31.554700	0 0 0
	48	pv	0.857700	17.109000	3.228700	0 0 0
	49	pv	0.857700	17.109000	12.670700	0 0 0
	50	pv	0.857700	17.109000	22.112700	0 0 0
	51	pv	0.857700	17.109000	31.554700	0 0 0
	52	pv	0.857700	20.911000	3.228700	0 0 0
	53	pv	0.857700	20.911000	12.670700	0 0 0
	54	pv	0.857700	20.911000	22.112700	0 0 0
	55	pv	0.857700	20.911000	31.554700	0 0 0
	56	pv	0.857700	24.713000	3.228700	0 0 0
	57	pv	0.857700	24.713000	12.670700	0 0 0
	58	pv	0.857700	24.713000	22.112700	0 0 0
	59	pv	0.857700	24.713000	31.554700	0 0 0
	60	pv	0.857700	28.515000	3.228700	0 0 0
	61	pv	0.857700	28.515000	12.670700	0 0 0
	62	pv	0.857700	28.515000	22.112700	0 0 0
	63	pv	0.857700	28.515000	31.554700	0 0 0
	64	pv	1.306000	0.000000	5.234300	0 0 0
	65	pv	1.306000	0.000000	14.676300	0 0 0
	66	pv	1.306000	0.000000	24.118300	0 0 0
	67	pv	1.306000	0.000000	33.560300	0 0 0
	68	pv	1.306000	3.802000	5.234300	0 0 0
	69	pv	1.306000	3.802000	14.676300	0 0 0
	70	pv	1.306000	3.802000	24.118300	0 0 0
	71	pv	1.306000	3.802000	33.560300	0 0 0
	72	pv	1.306000	7.604000	5.234300	0 0 0
	73	pv	1.306000	7.604000	14.676300	0 0 0
	74	pv	1.306000	7.604000	24.118300	0 0 0
	75	pv	1.306000	7.604000	33.560300	0 0 0
	76	pv	1.306000	11.406000	5.234300	0 0 0
	77	pv	1.306000	11.406000	14.676300	0 0 0
	78	pv	1.306000	11.406000	24.118300	0 0 0
	79	pv	1.306000	11.406000	33.560300	0 0 0
	80	pv	1.306000	15.208000	5.234300	0 0 0
	81	pv	1.306000	15.208000	14.676300	0 0 0
	82	pv	1.306000	15.208000	24.118300	0 0 0
	83	pv	1.306000	15.208000	33.560300	0 0 0
	84	pv	1.306000	19.010000	5.234300	0 0 0
	85	pv	1.306000	19.010000	14.676300	0 0 0
	86	pv	1.306000	19.010000	24.118300	0 0 0
	87	pv	1.306000	19.010000	33.560300	0 0 0
	88	pv	1.306000	22.812000	5.234300	0 0 0
	89	pv	1.306000	22.812000	14.676300	0 0 0
	90	pv	1.306000	22.812000	24.118300	0 0 0
	91	pv	1.306000	22.812000	33.560300	0 0 0
	92	pv	1.306000	26.614000	5.234300	0 0 0
	93	pv	1.306000	26.614000	14.676300	0 0 0
	94	pv	1.306000	26.614000	24.118300	0 0 0
	95	pv	1.306000	26.614000	33.560300	0 0 0
	96	pv	1.715400	1.901000	0.509000	0 0 0
	97	pv	1.715400	1.901000	9.951000	0 0 0
	98	pv	1.715400	1.901000	19.393000	0 0 0
	99	pv	1.715400	1.901000	28.835000	0 0 0
	100	pv	1.715400	5.703000	0.509000	0 0 0
	101	pv	1.715400	5.703000	9.951000	0 0 0
	102	pv	1.715400	5.703000	19.393000	0 0 0
	103	pv	1.715400	5.703000	28.835000	0 0 0
	104	pv	1.715400	9.505000	0.509000	0 0 0
	105	pv	1.715400	9.505000	9.951000	0 0 0
	106	pv	1.715400	9.505000	19.393000	0 0 0
	107	pv	1.715400	9.505000	28.835000	0 0 0
	108	pv	1.715400	13.307000	0.509000	0 0 0
	109	pv	1.715400	13.307000	9.951000	0 0 0
	110	pv	1.715400	13.307000	19.393000	0 0 0
	111	pv	1.715400	13.307000	28.835000	0 0 0
	112	pv	1.715400	17.109000	0.509000	0 0 0
	113	pv	1.715400	17.109000	9.951000	0 0 0
	114	pv	1.715400	17.109000	19.393000	0 0 0
	115	pv	1.715400	17.109000	28.835000	0 0 0
	116	pv	1.715400	20.911000	0.509000	0 0 0
	117	pv	1.715400	20.911000	9.951000	0 0 0
	118	pv	1.715400	20.911000	19.393000	0 0 0
	119	pv	1.715400	20.911000	28.835000	0 0 0
	120	pv	1.715400	24.713000	0.509000	0 0 0
	121	pv	1.715400	24.713000	9.951000	0 0 0
	122	pv	1.715400	24.713000	19.393000	0 0 0
	123	pv	1.715400	24.713000	28.835000	0 0 0
	124	pv	1.715400	28.515000	0.509000	0 0 0
	125	pv	1.715400	28.515000	9.951000	0 0 0
	126	pv	1.715400	28.515000	19.393000	0 0 0
	127	pv	1.715400	28.515000	28.835000	0 0 0
	128	pv	2.348900	0.000000	2.234500	0 0 0
	129	pv	2.348900	0.000000	11.676500	0 0 0
	130	pv	2.348900	0.000000	21.118500	0 0 0
	131	pv	2.348900	0.000000	30.560500	0 0 0
	132	pv	2.348900	3.802000	2.234500	0 0 0
	133	pv	2.348900	3.802000	11.676500	0 0 0
	134	pv	2.348900	3.802000	21.118500	0 0 0
	135	pv	2.348900	3.802000	30.560500	0 0 0
	136	pv	2.348900	7.604000	2.234500	0 0 0
	137	pv	2.348900	7.604000	11.676500	0 0 0
	138	pv	2.348900	7.604000	21.118500	0 0 0
	139	pv	2.348900	7.604000	30.560500	0 0 0
	140	pv	2.348900	11.406000	2.234500	0 0 0
	141	pv	2.348900	11.406000	11.676500	0 0 0
	142	pv	2.348900	11.406000	21.118500	0 0 0
	143	pv	2.348900	11.406000	30.560500	0 0 0
	144	pv	2.348900	15.208000	2.234500	0 0 0
	145	pv	2.348900	15.208000	11.676500	0 0 0
	146	pv	2.348900	15.208000	21.118500	0 0 0
	147	pv	2.348900	15.208000	30.560500	0 0 0
	148	pv	2.348900	19.010000	2.234500	0 0 0
	149	pv	2.348900	19.010000	11.676500	0 0 0
	150	pv	2.348900	19.010000	21.118500	0 0 0
	151	pv	2.348900	19.010000	30.560500	0 0 0
	152	pv	2.348900	22.812000	2.234500	0 0 0
	153	pv	2.348900	22.812000	11.676500	0 0 0
	154	pv	2.348900	22.812000	21.118500	0 0 0
	155	pv	2.348900	22.812000	30.560500	0 0 0
	156	pv	2.348900	26.614000	2.234500	0 0 0
	157	pv	2.348900	26.614000	11.676500	0 0 0
	158	pv	2.348900	26.614000	21.118500	0 0 0
	159	pv	2.348900	26.614000	30.560500	0 0 0
	160	pv	2.524300	1.901000	7.044100	0 0 0
	161	pv	2.524300	1.901000	16.486100	0 0 0
	162	pv	2.524300	1.901000	25.928100	0 0 0
	163	pv	2.524300	1.901000	35.370100	0 0 0
	164	pv	2.524300	5.703000	7.044100	0 0 0
	165	pv	2.524300	5.703000	16.486100	0 0 0
	166	pv	2.524300	5.703000	25.928100	0 0 0
	167	pv	2.524300	5.703000	35.370100	0 0 0
	168	pv	2.524300	9.505000	7.044100	0 0 0
	169	pv	2.524300	9.505000	16.486100	0 0 0
	170	pv	2.524300	9.505000	25.928100	0 0 0
	171	pv	2.524300	9.505000	35.370100	0 0 0
	172	pv	2.524300	13.307000	7.044100	0 0 0
	173	pv	2.524300	13.307000	16.486100	0 0 0
	174	pv	2.524300	13.307000	25.928100	0 0 0
	175	pv	2.524300	13.307000	35.370100	0 0 0
	176	pv	2.524300	17.109000	7.044100	0 0 0
	177	pv	2.524300	17.109000	16.486100	0 0 0
	178	pv	2.524300	17.109000	25.928100	0 0 0
	179	pv	2.524300	17.109000	35.370100	0 0 0
	180	pv	2.524300	20.911000	7.044100	0 0 0
	181	pv	2.524300	20.911000	16.486100	0 0 0
	182	pv	2.524300	20.911000	25.928100	0 0 0
	183	pv	2.524300	20.911000	35.370100	0 0 0
	184	pv	2.524300	24.713000	7.044100	0 0 0
	185	pv	2.524300	24.713000	16.486100	0 0 0
	186	pv	2.524300	24.713000	25.928100	0 0 0
	187	pv	2.524300	24.713000	35.370100	0 0 0
	188	pv	2.524300	28.515000	7.044100	0 0 0
	189	pv	2.524300	28.515000	16.486100	0 0 0
	190	pv	2.524300	28.515000	25.928100	0 0 0
	191	pv	2.524300	28.515000	35.370100	0 0 0
	192	pv	3.157900	0.000000	8.769600	0 0 0
	193	pv	3.157900	0.000000	18.211600	0 0 0
	194	pv	3.157900	0.000000	27.653600	0 0 0
	195	pv	3.157900	0.000000	37.095600	0 0 0
	196	pv	3.157900	3.802000	8.769600	0 0 0
	197	pv	3.157900	3.802000	18.211600	0 0 0
	198	pv	3.157900	3.802000	27.653600	0 0 0
	199	pv	3.157900	3.802000	37.095600	0 0 0
	200	pv	3.157900	7.604000	8.769600	0 0 0
	201	pv	3.157900	7.604000	18.211600	0 0 0
	202	pv	3.157900	7.604000	27.653600	0 0 0
	203	pv	3.157900	7.604000	37.095600	0 0 0
	204	pv	3.157900	11.406000	8.769600	0 0 0
	205	pv	3.157900	11.406000	18.211600	0 0 0
	206	pv	3.157900	11.406000	27.653600	0 0 0
	207	pv	3.157900	11.406000	37.095600	0 0 0
	208	pv	3.157900	15.208000	8.769600	0 0 0
	209	pv	3.157900	15.208000	18.211600	0 0 0
	210	pv	3.157900	15.208000	27.653600	0 0 0
	211	pv	3.157900	15.208000	37.095600	0 0 0
	212	pv	3.157900	19.010000	8.769600	0 0 0
	213	pv	3.157900	19.010000	18.211600	0 0 0
	214	pv	3.157900	19.010000	27.653600	0 0 0
	215	pv	3.157900	19.010000	37.095600	0 0 0
	216	pv	3.157900	22.812000	8.769600	0 0 0
	217	pv	3.157900	22.812000	18.211600	0 0 0
	218	pv	3.157900	22.812000	27.653600	0 0 0
	219	pv	3.157900	22.812000	37.095600	0 0 0
	220	pv	3.157900	26.614000	8.769600	0 0 0
	221	pv	3.157900	26.614000	18.211600	0 0 0
	222	pv	3.157900	26.614000	27.653600	0 0 0
	223	pv	3.157900	26.614000	37.095600	0 0 0
	224	pv	3.567200	1.901000	4.044300	0 0 0
	225	pv	3.567200	1.901000	13.486300	0 0 0
	226	pv	3.567200	1.901000	22.928300	0 0 0
	227	pv	3.567200	1.901000	32.370300	0 0 0
	228	pv	3.567200	5.703000	4.044300	0 0 0
	229	pv	3.567200	5.703000	13.486300	0 0 0
	230	pv	3.567200	5.703000	22.928300	0 0 0
	231	pv	3.567200	5.703000	32.370300	0 0 0
	232	pv	3.567200	9.505000	4.044300	0 0 0
	233	pv	3.567200	9.505000	13.486300	0 0 0
	234	pv	3.567200	9.505000	22.928300	0 0 0
	235	pv	3.567200	9.505000	32.370300	0 0 0
	236	pv	3.567200	13.307000	4.044300	0 0 0
	237	pv	3.567200	13.307000	13.486300	0 0 0
	238	pv	3.567200	13.307000	22.928300	0 0 0
	239	pv	3.567200	13.307000	32.370300	0 0 0
	240	pv	3.567200	17.109000	4.044300	0 0 0
	241	pv	3.567200	17.109000	13.486300	0 0 0
	242	pv	3.567200	17.109000	22.928300	0 0 0
	243	pv	3.567200	17.109000	32.370300	0 0 0
	244	pv	3.567200	20.911000	4.044300	0 0 0
	245	pv	3.567200	20.911000	13.486300	0 0 0
	246	pv	3.567200	20.911000	22.928300	0 0 0
	247	pv	3.567200	20.911000	32.370300	0 0 0
	248	pv	3.567200	24.713000	4.044300	0 0 0
	249	pv	3.567200	24.713000	13.486300	0 0 0
	250	pv	3.567200	24.713000	22.928300	0 0 0
	251	pv	3.567200	24.713000	32.370300	0 0 0
	252	pv	3.567200	28.515000	4.044300	0 0 0
	253	pv	3.567200	28.515000	13.486300	0 0 0
	254	pv	3.567200	28.515000	22.928300	0 0 0
	255	pv	3.567200	28.515000	32.370300	0 0 0
	256	pv	4.015600	0.000000	6.049900	0 0 0
	257	pv	4.015600	0.000000	15.491900	0 0 0
	258	pv	4.015600	0.000000	24.933900	0 0 0
	259	pv	4.015600	0.000000	34.375900	0 0 0
	260	pv	4.015600	3.802000	6.049900	0 0 0
	261	pv	4.015600	3.802000	15.491900	0 0 0
	262	pv	4.015600	3.802000	24.933900	0 0 0
	263	pv	4.015600	3.802000	34.375900	0 0 0
	264	pv	4.015600	7.604000	6.049900	0 0 0
	265	pv	4.015600	7.604000	15.491900	0 0 0
	266	pv	4.015600	7.604000	24.933900	0 0 0
	267	pv	4.015600	7.604000	34.375900	0 0 0
	268	pv	4.015600	11.406000	6.049900	0 0 0
	269	pv	4.015600	11.406000	15.491900	0 0 0
	270	pv	4.015600	11.406000	24.933900	0 0 0
	271	pv	4.015600	11.406000	34.375900	0 0 0
	272	pv	4.015600	15.208000	6.049900	0 0 0
	273	pv	4.015600	15.208000	15.491900	0 0 0
	274	pv	4.015600	15.208000	24.933900	0 0 0
	275	pv	4.015600	15.208000	34.375900	0 0 0
	276	pv	4.015600	19.010000	6.049900	0 0 0
	277	pv	4.015600	19.010000	15.491900	0 0 0
	278	pv	4.015600	19.010000	24.933900	0 0 0
	279	pv	4.015600	19.010000	34.375900	0 0 0
	280	pv	4.015600	22.812000	6.049900	0 0 0
	281	pv	4.015600	22.812000	15.491900	0 0 0
	282	pv	4.015600	22.812000	24.933900	0 0 0
	283	pv	4.015600	22.812000	34.375900	0 0 0
	284	pv	4.015600	26.614000	6.049900	0 0 0
	285	pv	4.015600	26.614000	15.491900	0 0 0
	286	pv	4.015600	26.614000	24.933900	0 0 0
	287	pv	4.015600	26.614000	34.375900	0 0 0
	288	pv	4.415200	1.901000	1.343800	0 0 0
	289	pv	4.415200	1.901000	10.785800	0 0 0
	290	pv	4.415200	1.901000	20.227800	0 0 0
	291	pv	4.415200	1.901000	29.669800	0 0 0
	292	pv	4.415200	5.703000	1.343800	0 0 0
	293	pv	4.415200	5.703000	10.785800	0 0 0
	294	pv	4.415200	5.703000	20.227800	0 0 0
	295	pv	4.415200	5.703000	29.669800	0 0 0
	296	pv	4.415200	9.505000	1.343800	0 0 0
	297	pv	4.415200	9.505000	10.785800	0 0 0
	298	pv	4.415200	9.505000	20.227800	0 0 0
	299	pv	4.415200	9.505000	29.669800	0 0 0
	300	pv	4.415200	13.307000	1.343800	0 0 0
	301	pv	4.415200	13.307000	10.785800	0 0 0
	302	pv	4.415200	13.307000	20.227800	0 0 0
	303	pv	4.415200	13.307000	29.669800	0 0 0
	304	pv	4.415200	17.109000	1.343800	0 0 0
	305	pv	4.415200	17.109000	10.785800	0 0 0
	306	pv	4.415200	17.109000	20.227800	0 0 0
	307	pv	4.415200	17.109000	29.669800	0 0 0
	308	pv	4.415200	20.911000	1.343800	0 0 0
	309	pv	4.415200	20.911000	10.785800	0 0 0
	310	pv	4.415200	20.911000	20.227800	0 0 0
	311	pv	4.415200	20.911000	29.669800	0 0 0
	312	pv	4.415200	24.713000	1.343800	0 0 0
	313	pv	4.415200	24.713000	10.785800	0 0 0
	314	pv	4.415200	24.713000	20.227800	0 0 0
	315	pv	4.415200	24.713000	29.669800	0 0 0
	316	pv	4.415200	28.515000	1.343800	0 0 0
	317	pv	4.415200	28.515000	10.785800	0 0 0
	318	pv	4.415200	28.515000	20.227800	0 0 0
	319	pv	4.415200	28.515000	29.669800	0 0 0
	320	pv	5.331300	1.901000	7.771400	0 0 0
	321	pv	5.331300	1.901000	17.213400	0 0 0
	322	pv	5.331300	1.901000	26.655400	0 0 0
	323	pv	5.331300	1.901000	36.097400	0 0 0
	324	pv	5.331300	5.703000	7.771400	0 0 0
	325	pv	5.331300	5.703000	17.213400	0 0 0
	326	pv	5.331300	5.703000	26.655400	0 0 0
	327	pv	5.331300	5.703000	36.097400	0 0 0
	328	pv	5.331300	9.505000	7.771400	0 0 0
	329	pv	5.331300	9.505000	17.213400	0 0 0
	330	pv	5.331300	9.505000	26.655400	0 0 0
	331	pv	5.331300	9.505000	36.097400	0 0 0
	332	pv	5.331300	13.307000	7.771400	0 0 0
	333	pv	5.331300	13.307000	17.213400	0 0 0
	334	pv	5.331300	13.307000	26.655400	0 0 0
	335	pv	5.331300	13.307000	36.097400	0 0 0
	336	pv	5.331300	17.109000	7.771400	0 0 0
	337	pv	5.331300	17.109000	17.213400	0 0 0
	338	pv	5.331300	17.109000	26.655400	0 0 0
	339	pv	5.331300	17.109000	36.097400	0 0 0
	340	pv	5.331300	20.911000	7.771400	0 0 0
	341	pv	5.331300	20.911000	17.213400	0 0 0
	342	pv	5.331300	20.911000	26.655400	0 0 0
	343	pv	5.331300	20.911000	36.097400	0 0 0
	344	pv	5.331300	24.713000	7.771400	0 0 0
	345	pv	5.331300	24.713000	17.213400	0 0 0
	346	pv	5.331300	24.713000	26.655400	0 0 0
	347	pv	5.331300	24.713000	36.097400	0 0 0
	348	pv	5.331300	28.515000	7.771400	0 0 0
	349	pv	5.331300	28.515000	17.213400	0 0 0
	350	pv	5.331300	28.515000	26.655400	0 0 0
	351	pv	5.331300	28.515000	36.097400	0 0 0
	352	pv	5.731000	0.000000	3.065400	0 0 0
	353	pv	5.731000	0.000000	12.507400	0 0 0
	354	pv	5.731000	0.000000	21.949400	0 0 0
	355	pv	5.731000	0.000000	31.391400	0 0 0
	356	pv	5.731000	3.802000	3.065400	0 0 0
	357	pv	5.731000	3.802000	12.507400	0 0 0
	358	pv	5.731000	3.802000	21.949400	0 0 0
	359	pv	5.731000	3.802000	31.391400	0 0 0
	360	pv	5.731000	7.604000	3.065400	0 0 0
	361	pv	5.731000	7.604000	12.507400	0 0 0
	362	pv	5.731000	7.604000	21.949400	0 0 0
	363	pv	5.731000	7.604000	31.391400	0 0 0
	364	pv	5.731000	11.406000	3.065400	0 0 0
	365	pv	5.731000	11.406000	12.507400	0 0 0
	366	pv	5.731000	11.406000	21.949400	0 0 0
	367	pv	5.731000	11.406000	31.391400	0 0 0
	368	pv	5.731000	15.208000	3.065400	0 0 0
	369	pv	5.731000	15.208000	12.507400	0 0 0
	370	pv	5.731000	15.208000	21.949400	0 0 0
	371	pv	5.731000	15.208000	31.391400	0 0 0
	372	pv	5.731000	19.010000	3.065400	0 0 0
	373	pv	5.731000	19.010000	12.507400	0 0 0
	374	pv	5.731000	19.010000	21.949400	0 0 0
	375	pv	5.731000	19.010000	31.391400	0 0 0
	376	pv	5.731000	22.812000	3.065400	0 0 0
	377	pv	5.731000	22.812000	12.507400	0 0 0
	378	pv	5.731000	22.812000	21.949400	0 0 0
	379	pv	5.731000	22.812000	31.391400	0 0 0
	380	pv	5.731000	26.614000	3.065400	0 0 0
	381	pv	5.731000	26.614000	12.507400	0 0 0
	382	pv	5.731000	26.614000	21.949400	0 0 0
	383	pv	5.731000	26.614000	31.391400	0 0 0
	384	pv	6.179300	1.901000	5.070900	0 0 0
	385	pv	6.179300	1.901000	14.512900	0 0 0
	386	pv	6.179300	1.901000	23.954900	0 0 0
	387	pv	6.179300	1.901000	33.396900	0 0 0
	388	pv	6.179300	5.703000	5.070900	0 0 0
	389	pv	6.179300	5.703000	14.512900	0 0 0
	390	pv	6.179300	5.703000	23.954900	0 0 0
	391	pv	6.179300	5.703000	33.396900	0 0 0
	392	pv	6.179300	9.505000	5.070900	0 0 0
	393	pv	6.179300	9.505000	14.512900	0 0 0
	394	pv	6.179300	9.505000	23.954900	0 0 0
	395	pv	6.179300	9.505000	33.396900	0 0 0
	396	pv	6.179300	13.307000	5.070900	0 0 0
	397	pv	6.179300	13.307000	14.512900	0 0 0
	398	pv	6.179300	13.307000	23.954900	0 0 0
	399	pv	6.179300	13.307000	33.396900	0 0 0
	400	pv	6.179300	17.109000	5.070900	0 0 0
	401	pv	6.179300	17.109000	14.512900	0 0 0
	402	pv	6.179300	17.109000	23.954900	0 0 0
	403	pv	6.179300	17.109000	33.396900	0 0 0
	404	pv	6.179300	20.911000	5.070900	0 0 0
	405	pv	6.179300	20.911000	14.512900	0 0 0
	406	pv	6.179300	20.911000	23.954900	0 0 0
	407	pv	6.179300	20.911000	33.396900	0 0 0
	408	pv	6.179300	24.713000	5.070900	0 0 0
	409	pv	6.179300	24.713000	14.512900	0 0 0
	410	pv	6.179300	24.713000	23.954900	0 0 0
	411	pv	6.179300	24.713000	33.396900	0 0 0
	412	pv	6.179300	28.515000	5.070900	0 0 0
	413	pv	6.179300	28.515000	14.512900	0 0 0
	414	pv	6.179300	28.515000	23.954900	0 0 0
	415	pv	6.179300	28.515000	33.396900	0 0 0
	416	pv	6.588700	0.000000	0.345600	0 0 0
	417	pv	6.588700	0.000000	9.787600	0 0 0
	418	pv	6.588700	0.000000	19.229600	0 0 0
	419	pv	6.588700	0.000000	28.671600	0 0 0
	420	pv	6.588700	3.802000	0.345600	0 0 0
	421	pv	6.588700	3.802000	9.787600	0 0 0
	422	pv	6.588700	3.802000	19.229600	0 0 0
	423	pv	6.588700	3.802000	28.671600	0 0 0
	424	pv	6.588700	7.604000	0.345600	0 0 0
	425	pv	6.588700	7.604000	9.787600	0 0 0
	426	pv	6.588700	7.604000	19.229600	0 0 0
	427	pv	6.588700	7.604000	28.671600	0 0 0
	428	pv	6.588700	11.406000	0.345600	0 0 0
	429	pv	6.588700	11.406000	9.787600	0 0 0
	430	pv	6.588700	11.406000	19.229600	0 0 0
	431	pv	6.588700	11.406000	28.671600	0 0 0
	432	pv	6.588700	15.208000	0.345600	0 0 0
	433	pv	6.588700	15.208000	9.787600	0 0 0
	434	pv	6.588700	15.208000	19.229600	0 0 0
	435	pv	6.588700	15.208000	28.671600	0 0 0
	436	pv	6.588700	19.010000	0.345600	0 0 0
	437	pv	6.588700	19.010000	9.787600	0 0 0
	438	pv	6.588700	19.010000	19.229600	0 0 0
	439	pv	6.588700	19.010000	28.671600	0 0 0
	440	pv	6.588700	22.812000	0.345600	0 0 0
	441	pv	6.588700	22.812000	9.787600	0 0 0
	442	pv	6.588700	22.812000	19.229600	0 0 0
	443	pv	6.588700	22.812000	28.671600	0 0 0
	444	pv	6.588700	26.614000	0.345600	0 0 0
	445	pv	6.588700	26.614000	9.787600	0 0 0
	446	pv	6.588700	26.614000	19.229600	0 0 0
	447	pv	6.588700	26.614000	28.671600	0 0 0
	448	pv	7.222200	1.901000	2.071200	0 0 0
	449	pv	7.222200	1.901000	11.513200	0 0 0
	450	pv	7.222200	1.901000	20.955200	0 0 0
	451	pv	7.222200	1.901000	30.397200	0 0 0
	452	pv	7.222200	5.703000	2.071200	0 0 0
	453	pv	7.222200	5.703000	11.513200	0 0 0
	454	pv	7.222200	5.703000	20.955200	0 0 0
	455	pv	7.222200	5.703000	30.397200	0 0 0
	456	pv	7.222200	9.505000	2.071200	0 0 0
	457	pv	7.222200	9.505000	11.513200	0 0 0
	458	pv	7.222200	9.505000	20.955200	0 0 0
	459	pv	7.222200	9.505000	30.397200	0 0 0
	460	pv	7.222200	13.307000	2.071200	0 0 0
	461	pv	7.222200	13.307000	11.513200	0 0 0
	462	pv	7.222200	13.307000	20.955200	0 0 0
	463	pv	7.222200	13.307000	30.397200	0 0 0
	464	pv	7.222200	17.109000	2.071200	0 0 0
	465	pv	7.222200	17.109000	11.513200	0 0 0
	466	pv	7.222200	17.109000	20.955200	0 0 0
	467	pv	7.222200	17.109000	30.397200	0 0 0
	468	pv	7.222200	20.911000	2.071200	0 0 0
	469	pv	7.222200	20.911000	11.513200	0 0 0
	470	pv	7.222200	20.911000	20.955200	0 0 0
	471	pv	7.222200	20.911000	30.397200	0 0 0
	472	pv	7.222200	24.713000	2.071200	0 0 0
	473	pv	7.222200	24.713000	11.513200	0 0 0
	474	pv	7.222200	24.713000	20.955200	0 0 0
	475	pv	7.222200	24.713000	30.397200	0 0 0
	476	pv	7.222200	28.515000	2.071200	0 0 0
	477	pv	7.222200	28.515000	11.513200	0 0 0
	478	pv	7.222200	28.515000	20.955200	0 0 0
	479	pv	7.222200	28.515000	30.397200	0 0 0
	480	pv	7.397600	0.000000	6.880700	0 0 0
	481	pv	7.397600	0.000000	16.322700	0 0 0
	482	pv	7.397600	0.000000	25.764700	0 0 0
	483	pv	7.397600	0.000000	35.206700	0 0 0
	484	pv	7.397600	3.802000	6.880700	0 0 0
	485	pv	7.397600	3.802000	16.322700	0 0 0
	486	pv	7.397600	3.802000	25.764700	0 0 0
	487	pv	7.397600	3.802000	35.206700	0 0 0
	488	pv	7.397600	7.604000	6.880700	0 0 0
	489	pv	7.397600	7.604000	16.322700	0 0 0
	490	pv	7.397600	7.604000	25.764700	0 0 0
	491	pv	7.397600	7.604000	35.206700	0 0 0
	492	pv	7.397600	11.406000	6.880700	0 0 0
	493	pv	7.397600	11.406000	16.322700	0 0 0
	494	pv	7.397600	11.406000	25.764700	0 0 0
	495	pv	7.397600	11.406000	35.206700	0 0 0
	496	pv	7.397600	15.208000	6.880700	0 0 0
	497	pv	7.397600	15.208000	16.322700	0 0 0
	498	pv	7.397600	15.208000	25.764700	0 0 0
	499	pv	7.397600	15.208000	35.206700	0 0 0
	500	pv	7.397600	19.010000	6.880700	0 0 0
	501	pv	7.397600	19.010000	16.322700	0 0 0
	502	pv	7.397600	19.010000	25.764700	0 0 0
	503	pv	7.397600	19.010000	35.206700	0 0 0
	504	pv	7.397600	22.812000	6.880700	0 0 0
	505	pv	7.397600	22.812000	16.322700	0 0 0
	506	pv	7.397600	22.812000	25.764700	0 0 0
	507	pv	7.397600	22.812000	35.206700	0 0 0
	508	pv	7.397600	26.614000	6.880700	0 0 0
	509	pv	7.397600	26.614000	16.322700	0 0 0
	510	pv	7.397600	26.614000	25.764700	0 0 0
	511	pv	7.397600	26.614000	35.206700	0 0 0
	512	pv	8.031100	1.901000	8.606300	0 0 0
	513	pv	8.031100	1.901000	18.048300	0 0 0
	514	pv	8.031100	1.901000	27.490300	0 0 0
	515	pv	8.031100	1.901000	36.932300	0 0 0
	516	pv	8.031100	5.703000	8.606300	0 0 0
	517	pv	8.031100	5.703000	18.048300	0 0 0
	518	pv	8.031100	5.703000	27.490300	0 0 0
	519	pv	8.031100	5.703000	36.932300	0 0 0
	520	pv	8.031100	9.505000	8.606300	0 0 0
	521	pv	8.031100	9.505000	18.048300	0 0 0
	522	pv	8.031100	9.505000	27.490300	0 0 0
	523	pv	8.031100	9.505000	36.932300	0 0 0
	524	pv	8.031100	13.307000	8.606300	0 0 0
	525	pv	8.031100	13.307000	18.048300	0 0 0
	526	pv	8.031100	13.307000	27.490300	0 0 0
	527	pv	8.031100	13.307000	36.932300	0 0 0
	528	pv	8.031100	17.109000	8.606300	0 0 0
	529	pv	8.031100	17.109000	18.048300	0 0 0
	530	pv	8.031100	17.109000	27.490300	0 0 0
	531	pv	8.031100	17.109000	36.932300	0 0 0
	532	pv	8.031100	20.911000	8.606300	0 0 0
	533	pv	8.031100	20.911000	18.048300	0 0 0
	534	pv	8.031100	20.911000	27.490300	0 0 0
	535	pv	8.031100	20.911000	36.932300	0 0 0
	536	pv	8.031100	24.713000	8.606300	0 0 0
	537	pv	8.031100	24.713000	18.048300	0 0 0
	538	pv	8.031100	24.713000	27.490300	0 0 0
	539	pv	8.031100	24.713000	36.932300	0 0 0
	540	pv	8.031100	28.515000	8.606300	0 0 0
	541	pv	8.031100	28.515000	18.048300	0 0 0
	542	pv	8.031100	28.515000	27.490300	0 0 0
	543	pv	8.031100	28.515000	36.932300	0 0 0
	544	pv	8.440500	0.000000	3.881000	0 0 0
	545	pv	8.440500	0.000000	13.323000	0 0 0
	546	pv	8.440500	0.000000	22.765000	0 0 0
	547	pv	8.440500	0.000000	32.207000	0 0 0
	548	pv	8.440500	3.802000	3.881000	0 0 0
	549	pv	8.440500	3.802000	13.323000	0 0 0
	550	pv	8.440500	3.802000	22.765000	0 0 0
	551	pv	8.440500	3.802000	32.207000	0 0 0
	552	pv	8.440500	7.604000	3.881000	0 0 0
	553	pv	8.440500	7.604000	13.323000	0 0 0
	554	pv	8.440500	7.604000	22.765000	0 0 0
	555	pv	8.440500	7.604000	32.207000	0 0 0
	556	pv	8.440500	11.406000	3.881000	0 0 0
	557	pv	8.440500	11.406000	13.323000	0 0 0
	558	pv	8.440500	11.406000	22.765000	0 0 0
	559	pv	8.440500	11.406000	32.207000	0 0 0
	560	pv	8.440500	15.208000	3.881000	0 0 0
	561	pv	8.440500	15.208000	13.323000	0 0 0
	562	pv	8.440500	15.208000	22.765000	0 0 0
	563	pv	8.440500	15.208000	32.207000	0 0 0
	564	pv	8.440500	19.010000	3.881000	0 0 0
	565	pv	8.440500	19.010000	13.323000	0 0 0
	566	pv	8.440500	19.010000	22.765000	0 0 0
	567	pv	8.440500	19.010000	32.207000	0 0 0
	568	pv	8.440500	22.812000	3.881000	0 0 0
	569	pv	8.440500	22.812000	13.323000	0 0 0
	570	pv	8.440500	22.812000	22.765000	0 0 0
	571	pv	8.440500	22.812000	32.207000	0 0 0
	572	pv	8.440500	26.614000	3.881000	0 0 0
	573	pv	8.440500	26.614000	13.323000	0 0 0
	574	pv	8.440500	26.614000	22.765000	0 0 0
	575	pv	8.440500	26.614000	32.207000	0 0 0
	576	pv	8.888800	1.901000	5.886500	0 0 0
	577	pv	8.888800	1.901000	15.328500	0 0 0
	578	pv	8.888800	1.901000	24.770500	0 0 0
	579	pv	8.888800	1.901000	34.212500	0 0 0
	580	pv	8.888800	5.703000	5.886500	0 0 0
	581	pv	8.888800	5.703000	15.328500	0 0 0
	582	pv	8.888800	5.703000	24.770500	0 0 0
	583	pv	8.888800	5.703000	34.212500	0 0 0
	584	pv	8.888800	9.505000	5.886500	0 0 0
	585	pv	8.888800	9.505000	15.328500	0 0 0
	586	pv	8.888800	9.505000	24.770500	0 0 0
	587	pv	8.888800	9.505000	34.212500	0 0 0
	588	pv	8.888800	13.307000	5.886500	0 0 0
	589	pv	8.888800	13.307000	15.328500	0 0 0
	590	pv	8.888800	13.307000	24.770500	0 0 0
	591	pv	8.888800	13.307000	34.212500	0 0 0
	592	pv	8.888800	17.109000	5.886500	0 0 0
	593	pv	8.888800	17.109000	15.328500	0 0 0
	594	pv	8.888800	17.109000	24.770500	0 0 0
	595	pv	8.888800	17.109000	34.212500	0 0 0
	596	pv	8.888800	20.911000	5.886500	0 0 0
	597	pv	8.888800	20.911000	15.328500	0 0 0
	598	pv	8.888800	20.911000	24.770500	0 0 0
	599	pv	8.888800	20.911000	34.212500	0 0 0
	600	pv	8.888800	24.713000	5.886500	0 0 0
	601	pv	8.888800	24.713000	15.328500	0 0 0
	602	pv	8.888800	24.713000	24.770500	0 0 0
	603	pv	8.888800	24.713000	34.212500	0 0 0
	604	pv	8.888800	28.515000	5.886500	0 0 0
	605	pv	8.888800	28.515000	15.328500	0 0 0
	606	pv	8.888800	28.515000	24.770500	0 0 0
	607	pv	8.888800	28.515000	34.212500	0 0 0
	608	pv	9.288400	0.000000	1.180500	0 0 0
	609	pv	9.288400	0.000000	10.622500	0 0 0
	610	pv	9.288400	0.000000	20.064500	0 0 0
	611	pv	9.288400	0.000000	29.506500	0 0 0
	612	pv	9.288400	3.802000	1.180500	0 0 0
	613	pv	9.288400	3.802000	10.622500	0 0 0
	614	pv	9.288400	3.802000	20.064500	0 0 0
	615	pv	9.288400	3.802000	29.506500	0 0 0
	616	pv	9.288400	7.604000	1.180500	0 0 0
	617	pv	9.288400	7.604000	10.622500	0 0 0
	618	pv	9.288400	7.604000	20.064500	0 0 0
	619	pv	9.288400	7.604000	29.506500	0 0 0
	620	pv	9.288400	11.406000	1.180500	0 0 0
	621	pv	9.288400	11.406000	10.622500	0 0 0
	622	pv	9.288400	11.406000	20.064500	0 0 0
	623	pv	9.288400	11.406000	29.506500	0 0 0
	624	pv	9.288400	15.208000	1.180500	0 0 0
	625	pv	9.288400	15.208000	10.622500	0 0 0
	626	pv	9.288400	15.208000	20.064500	0 0 0
	627	pv	9.288400	15.208000	29.506500	0 0 0
	628	pv	9.288400	19.010000	1.180500	0 0 0
	629	pv	9.288400	19.010000	10.622500	0 0 0
	630	pv	9.288400	19.010000	20.064500	0 0 0
	631	pv	9.288400	19.010000	29.506500	0 0 0
	632	pv	9.288400	22.812000	1.180500	0 0 0
	633	pv	9.288400	22.812000	10.622500	0 0 0
	634	pv	9.288400	22.812000	20.064500	0 0 0
	635	pv	9.288400	22.812000	29.506500	0 0 0
	636	pv	9.288400	26.614000	1.180500	0 0 0
	637	pv	9.288400	26.614000	10.622500	0 0 0
	638	pv	9.288400	26.614000	20.064500	0 0 0
	639	pv	9.288400	26.614000	29.506500	0 0 0
	640	pv	10.204600	0.000000	7.608100	0 0 0
	641	pv	10.204600	0.000000	17.050100	0 0 0
	642	pv	10.204600	0.000000	26.492100	0 0 0
	643	pv	10.204600	0.000000	35.934100	0 0 0
	644	pv	10.204600	3.802000	7.608100	0 0 0
	645	pv	10.204600	3.802000	17.050100	0 0 0
	646	pv	10.204600	3.802000	26.492100	0 0 0
	647	pv	10.204600	3.802000	35.934100	0 0 0
	648	pv	10.204600	7.604000	7.608100	0 0 0
	649	pv	10.204600	7.604000	17.050100	0 0 0
	650	pv	10.204600	7.604000	26.492100	0 0 0
	651	pv	10.204600	7.604000	35.934100	0 0 0
	652	pv	10.204600	11.406000	7.608100	0 0 0
	653	pv	10.204600	11.406000	17.050100	0 0 0
	654	pv	10.204600	11.406000	26.492100	0 0 0
	655	pv	10.204600	11.406000	35.934100	0 0 0
	656	pv	10.204600	15.208000	7.608100	0 0 0
	657	pv	10.204600	15.208000	17.050100	0 0 0
	658	pv	10.204600	15.208000	26.492100	0 0 0
	659	pv	10.204600	15.208000	35.934100	0 0 0
	660	pv	10.204600	19.010000	7.608100	0 0 0
	661	pv	10.204600	19.010000	17.050100	0 0 0
	662	pv	10.204600	19.010000	26.492100	0 0 0
	663	pv	10.204600	19.010000	35.934100	0 0 0
	664	pv	10.204600	22.812000	7.608100	0 0 0
	665	pv	10.204600	22.812000	17.050100	0 0 0
	666	pv	10.204600	22.812000	26.492100	0 0 0
	667	pv	10.204600	22.812000	35.934100	0 0 0
	668	pv	10.204600	26.614000	7.608100	0 0 0
	669	pv	10.204600	26.614000	17.050100	0 0 0
	670	pv	10.204600	26.614000	26.492100	0 0 0
	671	pv	10.204600	26.614000	35.934100	0 0 0
	672	pv	10.604200	1.901000	2.902000	0 0 0
	673	pv	10.604200	1.901000	12.344000	0 0 0
	674	pv	10.604200	1.901000	21.786000	0 0 0
	675	pv	10.604200	1.901000	31.228000	0 0 0
	676	pv	10.604200	5.703000	2.902000	0 0 0
	677	pv	10.604200	5.703000	12.344000	0 0 0
	678	pv	10.604200	5.703000	21.786000	0 0 0
	679	pv	10.604200	5.703000	31.228000	0 0 0
	680	pv	10.604200	9.505000	2.902000	0 0 0
	681	pv	10.604200	9.505000	12.344000	0 0 0
	682	pv	10.604200	9.505000	21.786000	0 0 0