<OpenMD version=1>
  <MetaData>
  
molecule{
  name = "Ti";
  
  atom[0]{
     type="Ti_FQ";
     position( 0.0, 0.0, 0.0 );
  }
}
molecule{
  name = "O";
  
  atom[0]{
     type="O_FQ";
     position( 0.0, 0.0, 0.0 );
  }
}

component{
  type = "O";
  nMol = 2048;
}
component{
  type = "Ti";
  nMol = 1024;
}
flucQ {
  propagator = "Damped";
  targetTemp = 1;
  dragCoefficient = 1;
  doInitialOptimization = false;
}

forceField = "DR-EAM";
forceFieldFileName = "DR-EAM.v2.frc";

outputFluctuatingCharges = true;
outputElectricField = true;
outputDensity = true;

ensemble = NVE;
dt = 0.1;
runTime = 1;
sampleTime = 0.1;
statusTime = 0.1;


cutoffMethod = "shifted_force";
cutoffRadius = 12;
electrostaticScreeningMethod = "DAMPED";
dampingAlpha = 0.105;

statFileFormat = "TIME|TOTAL_ENERGY|POTENTIAL_ENERGY|KINETIC_ENERGY|TEMPERATURE|PRESSURE|VOLUME|CONSERVED_QUANTITY|SYSTEM_DIPOLE";

  </MetaData>
  <Snapshot>
    <FrameData>
        Time: 0
        Hmat: {{ 30.276, 0, 0 }, { 0, 30.276, 0 }, { 0, 0, 38.0572 }}
  Thermostat: 0, 0
    Barostat: {{ 0, 0, 0 }, { 0, 0, 0 }, { 0, 0, 0 }}
    </FrameData>
    <StuntDoubles>
	0	pv	0.000000	0.000000	-1.979500	0 0 0
	1	pv	0.000000	0.000000	-7.534800	0 0 0
	2	pv	0.000000	0.000000	-11.493800	0 0 0
	3	pv	0.000000	0.000000	-17.049100	0 0 0
	4	pv	0.000000	0.000000	-21.008100	0 0 0
	5	pv	0.000000	0.000000	-26.563400	0 0 0
	6	pv	0.000000	0.000000	-30.522400	0 0 0
	7	pv	0.000000	0.000000	-36.077700	0 0 0
	8	pv	0.000000	-1.892200	-0.399000	0 0 0
	9	pv	0.000000	-1.892200	-4.358100	0 0 0
	10	pv	0.000000	-1.892200	-9.913300	0 0 0
	11	pv	0.000000	-1.892200	-13.872400	0 0 0
	12	pv	0.000000	-1.892200	-19.427600	0 0 0
	13	pv	0.000000	-1.892200	-23.386700	0 0 0
	14	pv	0.000000	-1.892200	-28.941900	0 0 0
	15	pv	0.000000	-1.892200	-32.901000	0 0 0
	16	pv	0.000000	-3.784500	-1.979500	0 0 0
	17	pv	0.000000	-3.784500	-7.534800	0 0 0
	18	pv	0.000000	-3.784500	-11.493800	0 0 0
	19	pv	0.000000	-3.784500	-17.049100	0 0 0
	20	pv	0.000000	-3.784500	-21.008100	0 0 0
	21	pv	0.000000	-3.784500	-26.563400	0 0 0
	22	pv	0.000000	-3.784500	-30.522400	0 0 0
	23	pv	0.000000	-3.784500	-36.077700	0 0 0
	24	pv	0.000000	-5.676700	-0.399000	0 0 0
	25	pv	0.000000	-5.676700	-4.358100	0 0 0
	26	pv	0.000000	-5.676700	-9.913300	0 0 0
	27	pv	0.000000	-5.676700	-13.872400	0 0 0
	28	pv	0.000000	-5.676700	-19.427600	0 0 0
	29	pv	0.000000	-5.676700	-23.386700	0 0 0
	30	pv	0.000000	-5.676700	-28.941900	0 0 0
	31	pv	0.000000	-5.676700	-32.901000	0 0 0
	32	pv	0.000000	-7.569000	-1.979500	0 0 0
	33	pv	0.000000	-7.569000	-7.534800	0 0 0
	34	pv	0.000000	-7.569000	-11.493800	0 0 0
	35	pv	0.000000	-7.569000	-17.049100	0 0 0
	36	pv	0.000000	-7.569000	-21.008100	0 0 0
	37	pv	0.000000	-7.569000	-26.563400	0 0 0
	38	pv	0.000000	-7.569000	-30.522400	0 0 0
	39	pv	0.000000	-7.569000	-36.077700	0 0 0
	40	pv	0.000000	-9.461200	-0.399000	0 0 0
	41	pv	0.000000	-9.461200	-4.358100	0 0 0
	42	pv	0.000000	-9.461200	-9.913300	0 0 0
	43	pv	0.000000	-9.461200	-13.872400	0 0 0
	44	pv	0.000000	-9.461200	-19.427600	0 0 0
	45	pv	0.000000	-9.461200	-23.386700	0 0 0
	46	pv	0.000000	-9.461200	-28.941900	0 0 0
	47	pv	0.000000	-9.461200	-32.901000	0 0 0
	48	pv	0.000000	-11.353500	-1.979500	0 0 0
	49	pv	0.000000	-11.353500	-7.534800	0 0 0
	50	pv	0.000000	-11.353500	-11.493800	0 0 0
	51	pv	0.000000	-11.353500	-17.049100	0 0 0
	52	pv	0.000000	-11.353500	-21.008100	0 0 0
	53	pv	0.000000	-11.353500	-26.563400	0 0 0
	54	pv	0.000000	-11.353500	-30.522400	0 0 0
	55	pv	0.000000	-11.353500	-36.077700	0 0 0
	56	pv	0.000000	-13.245700	-0.399000	0 0 0
	57	pv	0.000000	-13.245700	-4.358100	0 0 0
	58	pv	0.000000	-13.245700	-9.913300	0 0 0
	59	pv	0.000000	-13.245700	-13.872400	0 0 0
	60	pv	0.000000	-13.245700	-19.427600	0 0 0
	61	pv	0.000000	-13.245700	-23.386700	0 0 0
	62	pv	0.000000	-13.245700	-28.941900	0 0 0
	63	pv	0.000000	-13.245700	-32.901000	0 0 0
	64	pv	0.000000	-15.138000	-1.979500	0 0 0
	65	pv	0.000000	-15.138000	-7.534800	0 0 0
	66	pv	0.000000	-15.138000	-11.493800	0 0 0
	67	pv	0.000000	-15.138000	-17.049100	0 0 0
	68	pv	0.000000	-15.138000	-21.008100	0 0 0
	69	pv	0.000000	-15.138000	-26.563400	0 0 0
	70	pv	0.000000	-15.138000	-30.522400	0 0 0
	71	pv	0.000000	-15.138000	-36.077700	0 0 0
	72	pv	0.000000	-17.030200	-0.399000	0 0 0
	73	pv	0.000000	-17.030200	-4.358100	0 0 0
	74	pv	0.000000	-17.030200	-9.913300	0 0 0
	75	pv	0.000000	-17.030200	-13.872400	0 0 0
	76	pv	0.000000	-17.030200	-19.427600	0 0 0
	77	pv	0.000000	-17.030200	-23.386700	0 0 0
	78	pv	0.000000	-17.030200	-28.941900	0 0 0
	79	pv	0.000000	-17.030200	-32.901000	0 0 0
	80	pv	0.000000	-18.922500	-1.979500	0 0 0
	81	pv	0.000000	-18.922500	-7.534800	0 0 0
	82	pv	0.000000	-18.922500	-11.493800	0 0 0
	83	pv	0.000000	-18.922500	-17.049100	0 0 0
	84	pv	0.000000	-18.922500	-21.008100	0 0 0
	85	pv	0.000000	-18.922500	-26.563400	0 0 0
	86	pv	0.000000	-18.922500	-30.522400	0 0 0
	87	pv	0.000000	-18.922500	-36.077700	0 0 0
	88	pv	0.000000	-20.814700	-0.399000	0 0 0
	89	pv	0.000000	-20.814700	-4.358100	0 0 0
	90	pv	0.000000	-20.814700	-9.913300	0 0 0
	91	pv	0.000000	-20.814700	-13.872400	0 0 0
	92	pv	0.000000	-20.814700	-19.427600	0 0 0
	93	pv	0.000000	-20.814700	-23.386700	0 0 0
	94	pv	0.000000	-20.814700	-28.941900	0 0 0
	95	pv	0.000000	-20.814700	-32.901000	0 0 0
	96	pv	0.000000	-22.707000	-1.979500	0 0 0
	97	pv	0.000000	-22.707000	-7.534800	0 0 0
	98	pv	0.000000	-22.707000	-11.493800	0 0 0
	99	pv	0.000000	-22.707000	-17.049100	0 0 0
	100	pv	0.000000	-22.707000	-21.008100	0 0 0
	101	pv	0.000000	-22.707000	-26.563400	0 0 0
	102	pv	0.000000	-22.707000	-30.522400	0 0 0
	103	pv	0.000000	-22.707000	-36.077700	0 0 0
	104	pv	0.000000	-24.599200	-0.399000	0 0 0
	105	pv	0.000000	-24.599200	-4.358100	0 0 0
	106	pv	0.000000	-24.599200	-9.913300	0 0 0
	107	pv	0.000000	-24.599200	-13.872400	0 0 0
	108	pv	0.000000	-24.599200	-19.427600	0 0 0
	109	pv	0.000000	-24.599200	-23.386700	0 0 0
	110	pv	0.000000	-24.599200	-28.941900	0 0 0
	111	pv	0.000000	-24.599200	-32.901000	0 0 0
	112	pv	0.000000	-26.491500	-1.979500	0 0 0
	113	pv	0.000000	-26.491500	-7.534800	0 0 0
	114	pv	0.000000	-26.491500	-11.493800	0 0 0
	115	pv	0.000000	-26.491500	-17.049100	0 0 0
	116	pv	0.000000	-26.491500	-21.008100	0 0 0
	117	pv	0.000000	-26.491500	-26.563400	0 0 0
	118	pv	0.000000	-26.491500	-30.522400	0 0 0
	119	pv	0.000000	-26.491500	-36.077700	0 0 0
	120	pv	0.000000	-28.383700	-0.399000	0 0 0
	121	pv	0.000000	-28.383700	-4.358100	0 0 0
	122	pv	0.000000	-28.383700	-9.913300	0 0 0
	123	pv	0.000000	-28.383700	-13.872400	0 0 0
	124	pv	0.000000	-28.383700	-19.427600	0 0 0
	125	pv	0.000000	-28.383700	-23.386700	0 0 0
	126	pv	0.000000	-28.383700	-28.941900	0 0 0
	127	pv	0.000000	-28.383700	-32.901000	0 0 0
	128	pv	1.892200	-0.000000	-5.156200	0 0 0
	129	pv	1.892200	-0.000000	-9.115300	0 0 0
	130	pv	1.892200	-0.000000	-14.670500	0 0 0
	131	pv	1.892200	-0.000000	-18.629600	0 0 0
	132	pv	1.892200	-0.000000	-24.184800	0 0 0
	133	pv	1.892200	-0.000000	-28.143900	0 0 0
	134	pv	1.892200	-0.000000	-33.699100	0 0 0
	135	pv	1.892200	-0.000000	-37.658200	0 0 0
	136	pv	1.892200	-1.892300	-2.777600	0 0 0
	137	pv	1.892200	-1.892300	-6.736700	0 0 0
	138	pv	1.892200	-1.892300	-12.291900	0 0 0
	139	pv	1.892200	-1.892300	-16.251000	0 0 0
	140	pv	1.892200	-1.892300	-21.806200	0 0 0
	141	pv	1.892200	-1.892300	-25.765300	0 0 0
	142	pv	1.892200	-1.892300	-31.320500	0 0 0
	143	pv	1.892200	-1.892300	-35.279600	0 0 0
	144	pv	1.892200	-3.784500	-5.156200	0 0 0
	145	pv	1.892200	-3.784500	-9.115300	0 0 0
	146	pv	1.892200	-3.784500	-14.670500	0 0 0
	147	pv	1.892200	-3.784500	-18.629600	0 0 0
	148	pv	1.892200	-3.784500	-24.184800	0 0 0
	149	pv	1.892200	-3.784500	-28.143900	0 0 0
	150	pv	1.892200	-3.784500	-33.699100	0 0 0
	151	pv	1.892200	-3.784500	-37.658200	0 0 0
	152	pv	1.892200	-5.676800	-2.777600	0 0 0
	153	pv	1.892200	-5.676800	-6.736700	0 0 0
	154	pv	1.892200	-5.676800	-12.291900	0 0 0
	155	pv	1.892200	-5.676800	-16.251000	0 0 0
	156	pv	1.892200	-5.676800	-21.806200	0 0 0
	157	pv	1.892200	-5.676800	-25.765300	0 0 0
	158	pv	1.892200	-5.676800	-31.320500	0 0 0
	159	pv	1.892200	-5.676800	-35.279600	0 0 0
	160	pv	1.892200	-7.569000	-5.156200	0 0 0
	161	pv	1.892200	-7.569000	-9.115300	0 0 0
	162	pv	1.892200	-7.569000	-14.670500	0 0 0
	163	pv	1.892200	-7.569000	-18.629600	0 0 0
	164	pv	1.892200	-7.569000	-24.184800	0 0 0
	165	pv	1.892200	-7.569000	-28.143900	0 0 0
	166	pv	1.892200	-7.569000	-33.699100	0 0 0
	167	pv	1.892200	-7.569000	-37.658200	0 0 0
	168	pv	1.892200	-9.461300	-2.777600	0 0 0
	169	pv	1.892200	-9.461300	-6.736700	0 0 0
	170	pv	1.892200	-9.461300	-12.291900	0 0 0
	171	pv	1.892200	-9.461300	-16.251000	0 0 0
	172	pv	1.892200	-9.461300	-21.806200	0 0 0
	173	pv	1.892200	-9.461300	-25.765300	0 0 0
	174	pv	1.892200	-9.461300	-31.320500	0 0 0
	175	pv	1.892200	-9.461300	-35.279600	0 0 0
	176	pv	1.892200	-11.353500	-5.156200	0 0 0
	177	pv	1.892200	-11.353500	-9.115300	0 0 0
	178	pv	1.892200	-11.353500	-14.670500	0 0 0
	179	pv	1.892200	-11.353500	-18.629600	0 0 0
	180	pv	1.892200	-11.353500	-24.184800	0 0 0
	181	pv	1.892200	-11.353500	-28.143900	0 0 0
	182	pv	1.892200	-11.353500	-33.699100	0 0 0
	183	pv	1.892200	-11.353500	-37.658200	0 0 0
	184	pv	1.892200	-13.245800	-2.777600	0 0 0
	185	pv	1.892200	-13.245800	-6.736700	0 0 0
	186	pv	1.892200	-13.245800	-12.291900	0 0 0
	187	pv	1.892200	-13.245800	-16.251000	0 0 0
	188	pv	1.892200	-13.245800	-21.806200	0 0 0
	189	pv	1.892200	-13.245800	-25.765300	0 0 0
	190	pv	1.892200	-13.245800	-31.320500	0 0 0
	191	pv	1.892200	-13.245800	-35.279600	0 0 0
	192	pv	1.892200	-15.138000	-5.156200	0 0 0
	193	pv	1.892200	-15.138000	-9.115300	0 0 0
	194	pv	1.892200	-15.138000	-14.670500	0 0 0
	195	pv	1.892200	-15.138000	-18.629600	0 0 0
	196	pv	1.892200	-15.138000	-24.184800	0 0 0
	197	pv	1.892200	-15.138000	-28.143900	0 0 0
	198	pv	1.892200	-15.138000	-33.699100	0 0 0
	199	pv	1.892200	-15.138000	-37.658200	0 0 0
	200	pv	1.892200	-17.030300	-2.777600	0 0 0
	201	pv	1.892200	-17.030300	-6.736700	0 0 0
	202	pv	1.892200	-17.030300	-12.291900	0 0 0
	203	pv	1.892200	-17.030300	-16.251000	0 0 0
	204	pv	1.892200	-17.030300	-21.806200	0 0 0
	205	pv	1.892200	-17.030300	-25.765300	0 0 0
	206	pv	1.892200	-17.030300	-31.320500	0 0 0
	207	pv	1.892200	-17.030300	-35.279600	0 0 0
	208	pv	1.892200	-18.922500	-5.156200	0 0 0
	209	pv	1.892200	-18.922500	-9.115300	0 0 0
	210	pv	1.892200	-18.922500	-14.670500	0 0 0
	211	pv	1.892200	-18.922500	-18.629600	0 0 0
	212	pv	1.892200	-18.922500	-24.184800	0 0 0
	213	pv	1.892200	-18.922500	-28.143900	0 0 0
	214	pv	1.892200	-18.922500	-33.699100	0 0 0
	215	pv	1.892200	-18.922500	-37.658200	0 0 0
	216	pv	1.892200	-20.814800	-2.777600	0 0 0
	217	pv	1.892200	-20.814800	-6.736700	0 0 0
	218	pv	1.892200	-20.814800	-12.291900	0 0 0
	219	pv	1.892200	-20.814800	-16.251000	0 0 0
	220	pv	1.892200	-20.814800	-21.806200	0 0 0
	221	pv	1.892200	-20.814800	-25.765300	0 0 0
	222	pv	1.892200	-20.814800	-31.320500	0 0 0
	223	pv	1.892200	-20.814800	-35.279600	0 0 0
	224	pv	1.892200	-22.707000	-5.156200	0 0 0
	225	pv	1.892200	-22.707000	-9.115300	0 0 0
	226	pv	1.892200	-22.707000	-14.670500	0 0 0
	227	pv	1.892200	-22.707000	-18.629600	0 0 0
	228	pv	1.892200	-22.707000	-24.184800	0 0 0
	229	pv	1.892200	-22.707000	-28.143900	0 0 0
	230	pv	1.892200	-22.707000	-33.699100	0 0 0
	231	pv	1.892200	-22.707000	-37.658200	0 0 0
	232	pv	1.892200	-24.599300	-2.777600	0 0 0
	233	pv	1.892200	-24.599300	-6.736700	0 0 0
	234	pv	1.892200	-24.599300	-12.291900	0 0 0
	235	pv	1.892200	-24.599300	-16.251000	0 0 0
	236	pv	1.892200	-24.599300	-21.806200	0 0 0
	237	pv	1.892200	-24.599300	-25.765300	0 0 0
	238	pv	1.892200	-24.599300	-31.320500	0 0 0
	239	pv	1.892200	-24.599300	-35.279600	0 0 0
	240	pv	1.892200	-26.491500	-5.156200	0 0 0
	241	pv	1.892200	-26.491500	-9.115300	0 0 0
	242	pv	1.892200	-26.491500	-14.670500	0 0 0
	243	pv	1.892200	-26.491500	-18.629600	0 0 0
	244	pv	1.892200	-26.491500	-24.184800	0 0 0
	245	pv	1.892200	-26.491500	-28.143900	0 0 0
	246	pv	1.892200	-26.491500	-33.699100	0 0 0
	247	pv	1.892200	-26.491500	-37.658200	0 0 0
	248	pv	1.892200	-28.383800	-2.777600	0 0 0
	249	pv	1.892200	-28.383800	-6.736700	0 0 0
	250	pv	1.892200	-28.383800	-12.291900	0 0 0
	251	pv	1.892200	-28.383800	-16.251000	0 0 0
	252	pv	1.892200	-28.383800	-21.806200	0 0 0
	253	pv	1.892200	-28.383800	-25.765300	0 0 0
	254	pv	1.892200	-28.383800	-31.320500	0 0 0
	255	pv	1.892200	-28.383800	-35.279600	0 0 0
	256	pv	3.784500	-0.000000	-1.979500	0 0 0
	257	pv	3.784500	-0.000000	-7.534800	0 0 0
	258	pv	3.784500	-0.000000	-11.493800	0 0 0
	259	pv	3.784500	-0.000000	-17.049100	0 0 0
	260	pv	3.784500	-0.000000	-21.008100	0 0 0
	261	pv	3.784500	-0.000000	-26.563400	0 0 0
	262	pv	3.784500	-0.000000	-30.522400	0 0 0
	263	pv	3.784500	-0.000000	-36.077700	0 0 0
	264	pv	3.784500	-1.892300	-0.399000	0 0 0
	265	pv	3.784500	-1.892300	-4.358100	0 0 0
	266	pv	3.784500	-1.892300	-9.913300	0 0 0
	267	pv	3.784500	-1.892300	-13.872400	0 0 0
	268	pv	3.784500	-1.892300	-19.427600	0 0 0
	269	pv	3.784500	-1.892300	-23.386700	0 0 0
	270	pv	3.784500	-1.892300	-28.941900	0 0 0
	271	pv	3.784500	-1.892300	-32.901000	0 0 0
	272	pv	3.784500	-3.784500	-1.979500	0 0 0
	273	pv	3.784500	-3.784500	-7.534800	0 0 0
	274	pv	3.784500	-3.784500	-11.493800	0 0 0
	275	pv	3.784500	-3.784500	-17.049100	0 0 0
	276	pv	3.784500	-3.784500	-21.008100	0 0 0
	277	pv	3.784500	-3.784500	-26.563400	0 0 0
	278	pv	3.784500	-3.784500	-30.522400	0 0 0
	279	pv	3.784500	-3.784500	-36.077700	0 0 0
	280	pv	3.784500	-5.676800	-0.399000	0 0 0
	281	pv	3.784500	-5.676800	-4.358100	0 0 0
	282	pv	3.784500	-5.676800	-9.913300	0 0 0
	283	pv	3.784500	-5.676800	-13.872400	0 0 0
	284	pv	3.784500	-5.676800	-19.427600	0 0 0
	285	pv	3.784500	-5.676800	-23.386700	0 0 0
	286	pv	3.784500	-5.676800	-28.941900	0 0 0
	287	pv	3.784500	-5.676800	-32.901000	0 0 0
	288	pv	3.784500	-7.569000	-1.979500	0 0 0
	289	pv	3.784500	-7.569000	-7.534800	0 0 0
	290	pv	3.784500	-7.569000	-11.493800	0 0 0
	291	pv	3.784500	-7.569000	-17.049100	0 0 0
	292	pv	3.784500	-7.569000	-21.008100	0 0 0
	293	pv	3.784500	-7.569000	-26.563400	0 0 0
	294	pv	3.784500	-7.569000	-30.522400	0 0 0
	295	pv	3.784500	-7.569000	-36.077700	0 0 0
	296	pv	3.784500	-9.461300	-0.399000	0 0 0
	297	pv	3.784500	-9.461300	-4.358100	0 0 0
	298	pv	3.784500	-9.461300	-9.913300	0 0 0
	299	pv	3.784500	-9.461300	-13.872400	0 0 0
	300	pv	3.784500	-9.461300	-19.427600	0 0 0
	301	pv	3.784500	-9.461300	-23.386700	0 0 0
	302	pv	3.784500	-9.461300	-28.941900	0 0 0
	303	pv	3.784500	-9.461300	-32.901000	0 0 0
	304	pv	3.784500	-11.353500	-1.979500	0 0 0
	305	pv	3.784500	-11.353500	-7.534800	0 0 0
	306	pv	3.784500	-11.353500	-11.493800	0 0 0
	307	pv	3.784500	-11.353500	-17.049100	0 0 0
	308	pv	3.784500	-11.353500	-21.008100	0 0 0
	309	pv	3.784500	-11.353500	-26.563400	0 0 0
	310	pv	3.784500	-11.353500	-30.522400	0 0 0
	311	pv	3.784500	-11.353500	-36.077700	0 0 0
	312	pv	3.784500	-13.245800	-0.399000	0 0 0
	313	pv	3.784500	-13.245800	-4.358100	0 0 0
	314	pv	3.784500	-13.245800	-9.913300	0 0 0
	315	pv	3.784500	-13.245800	-13.872400	0 0 0
	316	pv	3.784500	-13.245800	-19.427600	0 0 0
	317	pv	3.784500	-13.245800	-23.386700	0 0 0
	318	pv	3.784500	-13.245800	-28.941900	0 0 0
	319	pv	3.784500	-13.245800	-32.901000	0 0 0
	320	pv	3.784500	-15.138000	-1.979500	0 0 0
	321	pv	3.784500	-15.138000	-7.534800	0 0 0
	322	pv	3.784500	-15.138000	-11.493800	0 0 0
	323	pv	3.784500	-15.138000	-17.049100	0 0 0
	324	pv	3.784500	-15.138000	-21.008100	0 0 0
	325	pv	3.784500	-15.138000	-26.563400	0 0 0
	326	pv	3.784500	-15.138000	-30.522400	0 0 0
	327	pv	3.784500	-15.138000	-36.077700	0 0 0
	328	pv	3.784500	-17.030300	-0.399000	0 0 0
	329	pv	3.784500	-17.030300	-4.358100	0 0 0
	330	pv	3.784500	-17.030300	-9.913300	0 0 0
	331	pv	3.784500	-17.030300	-13.872400	0 0 0
	332	pv	3.784500	-17.030300	-19.427600	0 0 0
	333	pv	3.784500	-17.030300	-23.386700	0 0 0
	334	pv	3.784500	-17.030300	-28.941900	0 0 0
	335	pv	3.784500	-17.030300	-32.901000	0 0 0
	336	pv	3.784500	-18.922500	-1.979500	0 0 0
	337	pv	3.784500	-18.922500	-7.534800	0 0 0
	338	pv	3.784500	-18.922500	-11.493800	0 0 0
	339	pv	3.784500	-18.922500	-17.049100	0 0 0
	340	pv	3.784500	-18.922500	-21.008100	0 0 0
	341	pv	3.784500	-18.922500	-26.563400	0 0 0
	342	pv	3.784500	-18.922500	-30.522400	0 0 0
	343	pv	3.784500	-18.922500	-36.077700	0 0 0
	344	pv	3.784500	-20.814800	-0.399000	0 0 0
	345	pv	3.784500	-20.814800	-4.358100	0 0 0
	346	pv	3.784500	-20.814800	-9.913300	0 0 0
	347	pv	3.784500	-20.814800	-13.872400	0 0 0
	348	pv	3.784500	-20.814800	-19.427600	0 0 0
	349	pv	3.784500	-20.814800	-23.386700	0 0 0
	350	pv	3.784500	-20.814800	-28.941900	0 0 0
	351	pv	3.784500	-20.814800	-32.901000	0 0 0
	352	pv	3.784500	-22.707000	-1.979500	0 0 0
	353	pv	3.784500	-22.707000	-7.534800	0 0 0
	354	pv	3.784500	-22.707000	-11.493800	0 0 0
	355	pv	3.784500	-22.707000	-17.049100	0 0 0
	356	pv	3.784500	-22.707000	-21.008100	0 0 0
	357	pv	3.784500	-22.707000	-26.563400	0 0 0
	358	pv	3.784500	-22.707000	-30.522400	0 0 0
	359	pv	3.784500	-22.707000	-36.077700	0 0 0
	360	pv	3.784500	-24.599300	-0.399000	0 0 0
	361	pv	3.784500	-24.599300	-4.358100	0 0 0
	362	pv	3.784500	-24.599300	-9.913300	0 0 0
	363	pv	3.784500	-24.599300	-13.872400	0 0 0
	364	pv	3.784500	-24.599300	-19.427600	0 0 0
	365	pv	3.784500	-24.599300	-23.386700	0 0 0
	366	pv	3.784500	-24.599300	-28.941900	0 0 0
	367	pv	3.784500	-24.599300	-32.901000	0 0 0
	368	pv	3.784500	-26.491500	-1.979500	0 0 0
	369	pv	3.784500	-26.491500	-7.534800	0 0 0
	370	pv	3.784500	-26.491500	-11.493800	0 0 0
	371	pv	3.784500	-26.491500	-17.049100	0 0 0
	372	pv	3.784500	-26.491500	-21.008100	0 0 0
	373	pv	3.784500	-26.491500	-26.563400	0 0 0
	374	pv	3.784500	-26.491500	-30.522400	0 0 0
	375	pv	3.784500	-26.491500	-36.077700	0 0 0
	376	pv	3.784500	-28.383800	-0.399000	0 0 0
	377	pv	3.784500	-28.383800	-4.358100	0 0 0
	378	pv	3.784500	-28.383800	-9.913300	0 0 0
	379	pv	3.784500	-28.383800	-13.872400	0 0 0
	380	pv	3.784500	-28.383800	-19.427600	0 0 0
	381	pv	3.784500	-28.383800	-23.386700	0 0 0
	382	pv	3.784500	-28.383800	-28.941900	0 0 0
	383	pv	3.784500	-28.383800	-32.901000	0 0 0
	384	pv	5.676700	-0.000000	-5.156200	0 0 0
	385	pv	5.676700	-0.000000	-9.115300	0 0 0
	386	pv	5.676700	-0.000000	-14.670500	0 0 0
	387	pv	5.676700	-0.000000	-18.629600	0 0 0
	388	pv	5.676700	-0.000000	-24.184800	0 0 0
	389	pv	5.676700	-0.000000	-28.143900	0 0 0
	390	pv	5.676700	-0.000000	-33.699100	0 0 0
	391	pv	5.676700	-0.000000	-37.658200	0 0 0
	392	pv	5.676700	-1.892300	-2.777600	0 0 0
	393	pv	5.676700	-1.892300	-6.736700	0 0 0
	394	pv	5.676700	-1.892300	-12.291900	0 0 0
	395	pv	5.676700	-1.892300	-16.251000	0 0 0
	396	pv	5.676700	-1.892300	-21.806200	0 0 0
	397	pv	5.676700	-1.892300	-25.765300	0 0 0
	398	pv	5.676700	-1.892300	-31.320500	0 0 0
	399	pv	5.676700	-1.892300	-35.279600	0 0 0
	400	pv	5.676700	-3.784500	-5.156200	0 0 0
	401	pv	5.676700	-3.784500	-9.115300	0 0 0
	402	pv	5.676700	-3.784500	-14.670500	0 0 0
	403	pv	5.676700	-3.784500	-18.629600	0 0 0
	404	pv	5.676700	-3.784500	-24.184800	0 0 0
	405	pv	5.676700	-3.784500	-28.143900	0 0 0
	406	pv	5.676700	-3.784500	-33.699100	0 0 0
	407	pv	5.676700	-3.784500	-37.658200	0 0 0
	408	pv	5.676700	-5.676800	-2.777600	0 0 0
	409	pv	5.676700	-5.676800	-6.736700	0 0 0
	410	pv	5.676700	-5.676800	-12.291900	0 0 0
	411	pv	5.676700	-5.676800	-16.251000	0 0 0
	412	pv	5.676700	-5.676800	-21.806200	0 0 0
	413	pv	5.676700	-5.676800	-25.765300	0 0 0
	414	pv	5.676700	-5.676800	-31.320500	0 0 0
	415	pv	5.676700	-5.676800	-35.279600	0 0 0
	416	pv	5.676700	-7.569000	-5.156200	0 0 0
	417	pv	5.676700	-7.569000	-9.115300	0 0 0
	418	pv	5.676700	-7.569000	-14.670500	0 0 0
	419	pv	5.676700	-7.569000	-18.629600	0 0 0
	420	pv	5.676700	-7.569000	-24.184800	0 0 0
	421	pv	5.676700	-7.569000	-28.143900	0 0 0
	422	pv	5.676700	-7.569000	-33.699100	0 0 0
	423	pv	5.676700	-7.569000	-37.658200	0 0 0
	424	pv	5.676700	-9.461300	-2.777600	0 0 0
	425	pv	5.676700	-9.461300	-6.736700	0 0 0
	426	pv	5.676700	-9.461300	-12.291900	0 0 0
	427	pv	5.676700	-9.461300	-16.251000	0 0 0
	428	pv	5.676700	-9.461300	-21.806200	0 0 0
	429	pv	5.676700	-9.461300	-25.765300	0 0 0
	430	pv	5.676700	-9.461300	-31.320500	0 0 0
	431	pv	5.676700	-9.461300	-35.279600	0 0 0
	432	pv	5.676700	-11.353500	-5.156200	0 0 0
	433	pv	5.676700	-11.353500	-9.115300	0 0 0
	434	pv	5.676700	-11.353500	-14.670500	0 0 0
	435	pv	5.676700	-11.353500	-18.629600	0 0 0
	436	pv	5.676700	-11.353500	-24.184800	0 0 0
	437	pv	5.676700	-11.353500	-28.143900	0 0 0
	438	pv	5.676700	-11.353500	-33.699100	0 0 0
	439	pv	5.676700	-11.353500	-37.658200	0 0 0
	440	pv	5.676700	-13.245800	-2.777600	0 0 0
	441	pv	5.676700	-13.245800	-6.736700	0 0 0
	442	pv	5.676700	-13.245800	-12.291900	0 0 0
	443	pv	5.676700	-13.245800	-16.251000	0 0 0
	444	pv	5.676700	-13.245800	-21.806200	0 0 0
	445	pv	5.676700	-13.245800	-25.765300	0 0 0
	446	pv	5.676700	-13.245800	-31.320500	0 0 0
	447	pv	5.676700	-13.245800	-35.279600	0 0 0
	448	pv	5.676700	-15.138000	-5.156200	0 0 0
	449	pv	5.676700	-15.138000	-9.115300	0 0 0
	450	pv	5.676700	-15.138000	-14.670500	0 0 0
	451	pv	5.676700	-15.138000	-18.629600	0 0 0
	452	pv	5.676700	-15.138000	-24.184800	0 0 0
	453	pv	5.676700	-15.138000	-28.143900	0 0 0
	454	pv	5.676700	-15.138000	-33.699100	0 0 0
	455	pv	5.676700	-15.138000	-37.658200	0 0 0
	456	pv	5.676700	-17.030300	-2.777600	0 0 0
	457	pv	5.676700	-17.030300	-6.736700	0 0 0
	458	pv	5.676700	-17.030300	-12.291900	0 0 0
	459	pv	5.676700	-17.030300	-16.251000	0 0 0
	460	pv	5.676700	-17.030300	-21.806200	0 0 0
	461	pv	5.676700	-17.030300	-25.765300	0 0 0
	462	pv	5.676700	-17.030300	-31.320500	0 0 0
	463	pv	5.676700	-17.030300	-35.279600	0 0 0
	464	pv	5.676700	-18.922500	-5.156200	0 0 0
	465	pv	5.676700	-18.922500	-9.115300	0 0 0
	466	pv	5.676700	-18.922500	-14.670500	0 0 0
	467	pv	5.676700	-18.922500	-18.629600	0 0 0
	468	pv	5.676700	-18.922500	-24.184800	0 0 0
	469	pv	5.676700	-18.922500	-28.143900	0 0 0
	470	pv	5.676700	-18.922500	-33.699100	0 0 0
	471	pv	5.676700	-18.922500	-37.658200	0 0 0
	472	pv	5.676700	-20.814800	-2.777600	0 0 0
	473	pv	5.676700	-20.814800	-6.736700	0 0 0
	474	pv	5.676700	-20.814800	-12.291900	0 0 0
	475	pv	5.676700	-20.814800	-16.251000	0 0 0
	476	pv	5.676700	-20.814800	-21.806200	0 0 0
	477	pv	5.676700	-20.814800	-25.765300	0 0 0
	478	pv	5.676700	-20.814800	-31.320500	0 0 0
	479	pv	5.676700	-20.814800	-35.279600	0 0 0
	480	pv	5.676700	-22.707000	-5.156200	0 0 0
	481	pv	5.676700	-22.707000	-9.115300	0 0 0
	482	pv	5.676700	-22.707000	-14.670500	0 0 0
	483	pv	5.676700	-22.707000	-18.629600	0 0 0
	484	pv	5.676700	-22.707000	-24.184800	0 0 0
	485	pv	5.676700	-22.707000	-28.143900	0 0 0
	486	pv	5.676700	-22.707000	-33.699100	0 0 0
	487	pv	5.676700	-22.707000	-37.658200	0 0 0
	488	pv	5.676700	-24.599300	-2.777600	0 0 0
	489	pv	5.676700	-24.599300	-6.736700	0 0 0
	490	pv	5.676700	-24.599300	-12.291900	0 0 0
	491	pv	5.676700	-24.599300	-16.251000	0 0 0
	492	pv	5.676700	-24.599300	-21.806200	0 0 0
	493	pv	5.676700	-24.599300	-25.765300	0 0 0
	494	pv	5.676700	-24.599300	-31.320500	0 0 0
	495	pv	5.676700	-24.599300	-35.279600	0 0 0
	496	pv	5.676700	-26.491500	-5.156200	0 0 0
	497	pv	5.676700	-26.491500	-9.115300	0 0 0
	498	pv	5.676700	-26.491500	-14.670500	0 0 0
	499	pv	5.676700	-26.491500	-18.629600	0 0 0
	500	pv	5.676700	-26.491500	-24.184800	0 0 0
	501	pv	5.676700	-26.491500	-28.143900	0 0 0
	502	pv	5.676700	-26.491500	-33.699100	0 0 0
	503	pv	5.676700	-26.491500	-37.658200	0 0 0
	504	pv	5.676700	-28.383800	-2.777600	0 0 0
	505	pv	5.676700	-28.383800	-6.736700	0 0 0
	506	pv	5.676700	-28.383800	-12.291900	0 0 0
	507	pv	5.676700	-28.383800	-16.251000	0 0 0
	508	pv	5.676700	-28.383800	-21.806200	0 0 0
	509	pv	5.676700	-28.383800	-25.765300	0 0 0
	510	pv	5.676700	-28.383800	-31.320500	0 0 0
	511	pv	5.676700	-28.383800	-35.279600	0 0 0
	512	pv	7.569000	-0.000000	-1.979500	0 0 0
	513	pv	7.569000	-0.000000	-7.534800	0 0 0
	514	pv	7.569000	-0.000000	-11.493800	0 0 0
	515	pv	7.569000	-0.000000	-17.049100	0 0 0
	516	pv	7.569000	-0.000000	-21.008100	0 0 0
	517	pv	7.569000	-0.000000	-26.563400	0 0 0
	518	pv	7.569000	-0.000000	-30.522400	0 0 0
	519	pv	7.569000	-0.000000	-36.077700	0 0 0
	520	pv	7.569000	-1.892300	-0.399000	0 0 0
	521	pv	7.569000	-1.892300	-4.358100	0 0 0
	522	pv	7.569000	-1.892300	-9.913300	0 0 0
	523	pv	7.569000	-1.892300	-13.872400	0 0 0
	524	pv	7.569000	-1.892300	-19.427600	0 0 0
	525	pv	7.569000	-1.892300	-23.386700	0 0 0
	526	pv	7.569000	-1.892300	-28.941900	0 0 0
	527	pv	7.569000	-1.892300	-32.901000	0 0 0
	528	pv	7.569000	-3.784500	-1.979500	0 0 0
	529	pv	7.569000	-3.784500	-7.534800	0 0 0
	530	pv	7.569000	-3.784500	-11.493800	0 0 0
	531	pv	7.569000	-3.784500	-17.049100	0 0 0
	532	pv	7.569000	-3.784500	-21.008100	0 0 0
	533	pv	7.569000	-3.784500	-26.563400	0 0 0
	534	pv	7.569000	-3.784500	-30.522400	0 0 0
	535	pv	7.569000	-3.784500	-36.077700	0 0 0
	536	pv	7.569000	-5.676800	-0.399000	0 0 0
	537	pv	7.569000	-5.676800	-4.358100	0 0 0
	538	pv	7.569000	-5.676800	-9.913300	0 0 0
	539	pv	7.569000	-5.676800	-13.872400	0 0 0
	540	pv	7.569000	-5.676800	-19.427600	0 0 0
	541	pv	7.569000	-5.676800	-23.386700	0 0 0
	542	pv	7.569000	-5.676800	-28.941900	0 0 0
	543	pv	7.569000	-5.676800	-32.901000	0 0 0
	544	pv	7.569000	-7.569000	-1.979500	0 0 0
	545	pv	7.569000	-7.569000	-7.534800	0 0 0
	546	pv	7.569000	-7.569000	-11.493800	0 0 0
	547	pv	7.569000	-7.569000	-17.049100	0 0 0
	548	pv	7.569000	-7.569000	-21.008100	0 0 0
	549	pv	7.569000	-7.569000	-26.563400	0 0 0
	550	pv	7.569000	-7.569000	-30.522400	0 0 0
	551	pv	7.569000	-7.569000	-36.077700	0 0 0
	552	pv	7.569000	-9.461300	-0.399000	0 0 0
	553	pv	7.569000	-9.461300	-4.358100	0 0 0
	554	pv	7.569000	-9.461300	-9.913300	0 0 0
	555	pv	7.569000	-9.461300	-13.872400	0 0 0
	556	pv	7.569000	-9.461300	-19.427600	0 0 0
	557	pv	7.569000	-9.461300	-23.386700	0 0 0
	558	pv	7.569000	-9.461300	-28.941900	0 0 0
	559	pv	7.569000	-9.461300	-32.901000	0 0 0
	560	pv	7.569000	-11.353500	-1.979500	0 0 0
	561	pv	7.569000	-11.353500	-7.534800	0 0 0
	562	pv	7.569000	-11.353500	-11.493800	0 0 0
	563	pv	7.569000	-11.353500	-17.049100	0 0 0
	564	pv	7.569000	-11.353500	-21.008100	0 0 0
	565	pv	7.569000	-11.353500	-26.563400	0 0 0
	566	pv	7.569000	-11.353500	-30.522400	0 0 0
	567	pv	7.569000	-11.353500	-36.077700	0 0 0
	568	pv	7.569000	-13.245800	-0.399000	0 0 0
	569	pv	7.569000	-13.245800	-4.358100	0 0 0
	570	pv	7.569000	-13.245800	-9.913300	0 0 0
	571	pv	7.569000	-13.245800	-13.872400	0 0 0
	572	pv	7.569000	-13.245800	-19.427600	0 0 0
	573	pv	7.569000	-13.245800	-23.386700	0 0 0
	574	pv	7.569000	-13.245800	-28.941900	0 0 0
	575	pv	7.569000	-13.245800	-32.901000	0 0 0
	576	pv	7.569000	-15.138000	-1.979500	0 0 0
	577	pv	7.569000	-15.138000	-7.534800	0 0 0
	578	pv	7.569000	-15.138000	-11.493800	0 0 0
	579	pv	7.569000	-15.138000	-17.049100	0 0 0
	580	pv	7.569000	-15.138000	-21.008100	0 0 0
	581	pv	7.569000	-15.138000	-26.563400	0 0 0
	582	pv	7.569000	-15.138000	-30.522400	0 0 0
	583	pv	7.569000	-15.138000	-36.077700	0 0 0
	584	pv	7.569000	-17.030300	-0.399000	0 0 0
	585	pv	7.569000	-17.030300	-4.358100	0 0 0
	586	pv	7.569000	-17.030300	-9.913300	0 0 0
	587	pv	7.569000	-17.030300	-13.872400	0 0 0
	588	pv	7.569000	-17.030300	-19.427600	0 0 0
	589	pv	7.569000	-17.030300	-23.386700	0 0 0
	590	pv	7.569000	-17.030300	-28.941900	0 0 0
	591	pv	7.569000	-17.030300	-32.901000	0 0 0
	592	pv	7.569000	-18.922500	-1.979500	0 0 0
	593	pv	7.569000	-18.922500	-7.534800	0 0 0
	594	pv	7.569000	-18.922500	-11.493800	0 0 0
	595	pv	7.569000	-18.922500	-17.049100	0 0 0
	596	pv	7.569000	-18.922500	-21.008100	0 0 0
	597	pv	7.569000	-18.922500	-26.563400	0 0 0
	598	pv	7.569000	-18.922500	-30.522400	0 0 0
	599	pv	7.569000	-18.922500	-36.077700	0 0 0
	600	pv	7.569000	-20.814800	-0.399000	0 0 0
	601	pv	7.569000	-20.814800	-4.358100	0 0 0
	602	pv	7.569000	-20.814800	-9.913300	0 0 0
	603	pv	7.569000	-20.814800	-13.872400	0 0 0
	604	pv	7.569000	-20.814800	-19.427600	0 0 0
	605	pv	7.569000	-20.814800	-23.386700	0 0 0
	606	pv	7.569000	-20.814800	-28.941900	0 0 0
	607	pv	7.569000	-20.814800	-32.901000	0 0 0
	608	pv	7.569000	-22.707000	-1.979500	0 0 0
	609	pv	7.569000	-22.707000	-7.534800	0 0 0
	610	pv	7.569000	-22.707000	-11.493800	0 0 0
	611	pv	7.569000	-22.707000	-17.049100	0 0 0
	612	pv	7.569000	-22.707000	-21.008100	0 0 0
	613	pv	7.569000	-22.707000	-26.563400	0 0 0
	614	pv	7.569000	-22.707000	-30.522400	0 0 0
	615	pv	7.569000	-22.707000	-36.077700	0 0 0
	616	pv	7.569000	-24.599300	-0.399000	0 0 0
	617	pv	7.569000	-24.599300	-4.358100	0 0 0
	618	pv	7.569000	-24.599300	-9.913300	0 0 0
	619	pv	7.569000	-24.599300	-13.872400	0 0 0
	620	pv	7.569000	-24.599300	-19.427600	0 0 0
	621	pv	7.569000	-24.599300	-23.386700	0 0 0
	622	pv	7.569000	-24.599300	-28.941900	0 0 0
	623	pv	7.569000	-24.599300	-32.901000	0 0 0
	624	pv	7.569000	-26.491500	-1.979500	0 0 0
	625	pv	7.569000	-26.491500	-7.534800	0 0 0
	626	pv	7.569000	-26.491500	-11.493800	0 0 0
	627	pv	7.569000	-26.491500	-17.049100	0 0 0
	628	pv	7.569000	-26.491500	-21.008100	0 0 0
	629	pv	7.569000	-26.491500	-26.563400	0 0 0
	630	pv	7.569000	-26.491500	-30.522400	0 0 0
	631	pv	7.569000	-26.491500	-36.077700	0 0 0
	632	pv	7.569000	-28.383800	-0.399000	0 0 0
	633	pv	7.569000	-28.383800	-4.358100	0 0 0
	634	pv	7.569000	-28.383800	-9.913300	0 0 0
	635	pv	7.569000	-28.383800	-13.872400	0 0 0
	636	pv	7.569000	-28.383800	-19.427600	0 0 0
	637	pv	7.569000	-28.383800	-23.386700	0 0 0
	638	pv	7.569000	-28.383800	-28.941900	0 0 0
	639	pv	7.569000	-28.383800	-32.901000	0 0 0
	640	pv	9.461200	-0.000000	-5.156200	0 0 0
	641	pv	9.461200	-0.000000	-9.115300	0 0 0
	642	pv	9.461200	-0.000000	-14.670500	0 0 0
	643	pv	9.461200	-0.000000	-18.629600	0 0 0
	644	pv	9.461200	-0.000000	-24.184800	0 0 0
	645	pv	9.461200	-0.000000	-28.143900	0 0 0
	646	pv	9.461200	-0.000000	-33.699100	0 0 0
	647	pv	9.461200	-0.000000	-37.658200	0 0 0
	648	pv	9.461200	-1.892300	-2.777600	0 0 0
	649	pv	9.461200	-1.892300	-6.736700	0 0 0
	650	pv	9.461200	-1.892300	-12.291900	0 0 0
	651	pv	9.461200	-1.892300	-16.251000	0 0 0
	652	pv	9.461200	-1.892300	-21.806200	0 0 0
	653	pv	9.461200	-1.892300	-25.765300	0 0 0