<OpenMD version=1>
  <MetaData>
  
molecule{
  name = "Ti";
  
  atom[0]{
     type="Ti_FQ";
     position( 0.0, 0.0, 0.0 );
  }
}
molecule{
  name = "O";
  
  atom[0]{
     type="O_FQ";
     position( 0.0, 0.0, 0.0 );
  }
}

component{
  type = "O";
  nMol = 2156;
}
component{
  type = "Ti";
  nMol = 1078;
}
flucQ {
  propagator = "Damped";
  targetTemp = 1;
  dragCoefficient = 1;
  doInitialOptimization = false;
}

forceField = "DR-EAM";
forceFieldFileName = "DR-EAM.v2.frc";

outputFluctuatingCharges = true;
outputElectricField = true;
outputDensity = true;

ensemble = NVE;
dt = 0.1;
runTime = 1;
sampleTime = 0.1;
statusTime = 0.1;


cutoffMethod = "shifted_force";
cutoffRadius = 12;
electrostaticScreeningMethod = "DAMPED";
dampingAlpha = 0.105;

statFileFormat = "TIME|TOTAL_ENERGY|POTENTIAL_ENERGY|KINETIC_ENERGY|TEMPERATURE|PRESSURE|VOLUME|CONSERVED_QUANTITY|SYSTEM_DIPOLE";

  </MetaData>
  <Snapshot>
    <FrameData>
        Time: 0
        Hmat: {{ 32.1559, 0, 0 }, { 0, 32.1559, 0 }, { 0, 0, 32.5457 }}
  Thermostat: 0, 0
    Barostat: {{ 0, 0, 0 }, { 0, 0, 0 }, { 0, 0, 0 }}
    </FrameData>
    <StuntDoubles>
	0	pv	0.896800	-3.696900	-1.479400	0 0 0
	1	pv	0.896800	-3.696900	-4.438100	0 0 0
	2	pv	0.896800	-3.696900	-7.396800	0 0 0
	3	pv	0.896800	-3.696900	-10.355500	0 0 0
	4	pv	0.896800	-3.696900	-13.314200	0 0 0
	5	pv	0.896800	-3.696900	-16.272900	0 0 0
	6	pv	0.896800	-3.696900	-19.231600	0 0 0
	7	pv	0.896800	-3.696900	-22.190300	0 0 0
	8	pv	0.896800	-3.696900	-25.149000	0 0 0
	9	pv	0.896800	-3.696900	-28.107700	0 0 0
	10	pv	0.896800	-3.696900	-31.066400	0 0 0
	11	pv	0.896800	-8.290600	-1.479400	0 0 0
	12	pv	0.896800	-8.290600	-4.438100	0 0 0
	13	pv	0.896800	-8.290600	-7.396800	0 0 0
	14	pv	0.896800	-8.290600	-10.355500	0 0 0
	15	pv	0.896800	-8.290600	-13.314200	0 0 0
	16	pv	0.896800	-8.290600	-16.272900	0 0 0
	17	pv	0.896800	-8.290600	-19.231600	0 0 0
	18	pv	0.896800	-8.290600	-22.190300	0 0 0
	19	pv	0.896800	-8.290600	-25.149000	0 0 0
	20	pv	0.896800	-8.290600	-28.107700	0 0 0
	21	pv	0.896800	-8.290600	-31.066400	0 0 0
	22	pv	0.896800	-12.884300	-1.479400	0 0 0
	23	pv	0.896800	-12.884300	-4.438100	0 0 0
	24	pv	0.896800	-12.884300	-7.396800	0 0 0
	25	pv	0.896800	-12.884300	-10.355500	0 0 0
	26	pv	0.896800	-12.884300	-13.314200	0 0 0
	27	pv	0.896800	-12.884300	-16.272900	0 0 0
	28	pv	0.896800	-12.884300	-19.231600	0 0 0
	29	pv	0.896800	-12.884300	-22.190300	0 0 0
	30	pv	0.896800	-12.884300	-25.149000	0 0 0
	31	pv	0.896800	-12.884300	-28.107700	0 0 0
	32	pv	0.896800	-12.884300	-31.066400	0 0 0
	33	pv	0.896800	-17.478000	-1.479400	0 0 0
	34	pv	0.896800	-17.478000	-4.438100	0 0 0
	35	pv	0.896800	-17.478000	-7.396800	0 0 0
	36	pv	0.896800	-17.478000	-10.355500	0 0 0
	37	pv	0.896800	-17.478000	-13.314200	0 0 0
	38	pv	0.896800	-17.478000	-16.272900	0 0 0
	39	pv	0.896800	-17.478000	-19.231600	0 0 0
	40	pv	0.896800	-17.478000	-22.190300	0 0 0
	41	pv	0.896800	-17.478000	-25.149000	0 0 0
	42	pv	0.896800	-17.478000	-28.107700	0 0 0
	43	pv	0.896800	-17.478000	-31.066400	0 0 0
	44	pv	0.896800	-22.071700	-1.479400	0 0 0
	45	pv	0.896800	-22.071700	-4.438100	0 0 0
	46	pv	0.896800	-22.071700	-7.396800	0 0 0
	47	pv	0.896800	-22.071700	-10.355500	0 0 0
	48	pv	0.896800	-22.071700	-13.314200	0 0 0
	49	pv	0.896800	-22.071700	-16.272900	0 0 0
	50	pv	0.896800	-22.071700	-19.231600	0 0 0
	51	pv	0.896800	-22.071700	-22.190300	0 0 0
	52	pv	0.896800	-22.071700	-25.149000	0 0 0
	53	pv	0.896800	-22.071700	-28.107700	0 0 0
	54	pv	0.896800	-22.071700	-31.066400	0 0 0
	55	pv	0.896800	-26.665400	-1.479400	0 0 0
	56	pv	0.896800	-26.665400	-4.438100	0 0 0
	57	pv	0.896800	-26.665400	-7.396800	0 0 0
	58	pv	0.896800	-26.665400	-10.355500	0 0 0
	59	pv	0.896800	-26.665400	-13.314200	0 0 0
	60	pv	0.896800	-26.665400	-16.272900	0 0 0
	61	pv	0.896800	-26.665400	-19.231600	0 0 0
	62	pv	0.896800	-26.665400	-22.190300	0 0 0
	63	pv	0.896800	-26.665400	-25.149000	0 0 0
	64	pv	0.896800	-26.665400	-28.107700	0 0 0
	65	pv	0.896800	-26.665400	-31.066400	0 0 0
	66	pv	0.896800	-31.259100	-1.479400	0 0 0
	67	pv	0.896800	-31.259100	-4.438100	0 0 0
	68	pv	0.896800	-31.259100	-7.396800	0 0 0
	69	pv	0.896800	-31.259100	-10.355500	0 0 0
	70	pv	0.896800	-31.259100	-13.314200	0 0 0
	71	pv	0.896800	-31.259100	-16.272900	0 0 0
	72	pv	0.896800	-31.259100	-19.231600	0 0 0
	73	pv	0.896800	-31.259100	-22.190300	0 0 0
	74	pv	0.896800	-31.259100	-25.149000	0 0 0
	75	pv	0.896800	-31.259100	-28.107700	0 0 0
	76	pv	0.896800	-31.259100	-31.066400	0 0 0
	77	pv	1.400100	-1.400100	-0.000000	0 0 0
	78	pv	1.400100	-1.400100	-2.958700	0 0 0
	79	pv	1.400100	-1.400100	-5.917400	0 0 0
	80	pv	1.400100	-1.400100	-8.876100	0 0 0
	81	pv	1.400100	-1.400100	-11.834800	0 0 0
	82	pv	1.400100	-1.400100	-14.793500	0 0 0
	83	pv	1.400100	-1.400100	-17.752200	0 0 0
	84	pv	1.400100	-1.400100	-20.710900	0 0 0
	85	pv	1.400100	-1.400100	-23.669600	0 0 0
	86	pv	1.400100	-1.400100	-26.628300	0 0 0
	87	pv	1.400100	-1.400100	-29.587000	0 0 0
	88	pv	1.400100	-5.993800	-0.000000	0 0 0
	89	pv	1.400100	-5.993800	-2.958700	0 0 0
	90	pv	1.400100	-5.993800	-5.917400	0 0 0
	91	pv	1.400100	-5.993800	-8.876100	0 0 0
	92	pv	1.400100	-5.993800	-11.834800	0 0 0
	93	pv	1.400100	-5.993800	-14.793500	0 0 0
	94	pv	1.400100	-5.993800	-17.752200	0 0 0
	95	pv	1.400100	-5.993800	-20.710900	0 0 0
	96	pv	1.400100	-5.993800	-23.669600	0 0 0
	97	pv	1.400100	-5.993800	-26.628300	0 0 0
	98	pv	1.400100	-5.993800	-29.587000	0 0 0
	99	pv	1.400100	-10.587500	-0.000000	0 0 0
	100	pv	1.400100	-10.587500	-2.958700	0 0 0
	101	pv	1.400100	-10.587500	-5.917400	0 0 0
	102	pv	1.400100	-10.587500	-8.876100	0 0 0
	103	pv	1.400100	-10.587500	-11.834800	0 0 0
	104	pv	1.400100	-10.587500	-14.793500	0 0 0
	105	pv	1.400100	-10.587500	-17.752200	0 0 0
	106	pv	1.400100	-10.587500	-20.710900	0 0 0
	107	pv	1.400100	-10.587500	-23.669600	0 0 0
	108	pv	1.400100	-10.587500	-26.628300	0 0 0
	109	pv	1.400100	-10.587500	-29.587000	0 0 0
	110	pv	1.400100	-15.181200	-0.000000	0 0 0
	111	pv	1.400100	-15.181200	-2.958700	0 0 0
	112	pv	1.400100	-15.181200	-5.917400	0 0 0
	113	pv	1.400100	-15.181200	-8.876100	0 0 0
	114	pv	1.400100	-15.181200	-11.834800	0 0 0
	115	pv	1.400100	-15.181200	-14.793500	0 0 0
	116	pv	1.400100	-15.181200	-17.752200	0 0 0
	117	pv	1.400100	-15.181200	-20.710900	0 0 0
	118	pv	1.400100	-15.181200	-23.669600	0 0 0
	119	pv	1.400100	-15.181200	-26.628300	0 0 0
	120	pv	1.400100	-15.181200	-29.587000	0 0 0
	121	pv	1.400100	-19.774900	-0.000000	0 0 0
	122	pv	1.400100	-19.774900	-2.958700	0 0 0
	123	pv	1.400100	-19.774900	-5.917400	0 0 0
	124	pv	1.400100	-19.774900	-8.876100	0 0 0
	125	pv	1.400100	-19.774900	-11.834800	0 0 0
	126	pv	1.400100	-19.774900	-14.793500	0 0 0
	127	pv	1.400100	-19.774900	-17.752200	0 0 0
	128	pv	1.400100	-19.774900	-20.710900	0 0 0
	129	pv	1.400100	-19.774900	-23.669600	0 0 0
	130	pv	1.400100	-19.774900	-26.628300	0 0 0
	131	pv	1.400100	-19.774900	-29.587000	0 0 0
	132	pv	1.400100	-24.368600	-0.000000	0 0 0
	133	pv	1.400100	-24.368600	-2.958700	0 0 0
	134	pv	1.400100	-24.368600	-5.917400	0 0 0
	135	pv	1.400100	-24.368600	-8.876100	0 0 0
	136	pv	1.400100	-24.368600	-11.834800	0 0 0
	137	pv	1.400100	-24.368600	-14.793500	0 0 0
	138	pv	1.400100	-24.368600	-17.752200	0 0 0
	139	pv	1.400100	-24.368600	-20.710900	0 0 0
	140	pv	1.400100	-24.368600	-23.669600	0 0 0
	141	pv	1.400100	-24.368600	-26.628300	0 0 0
	142	pv	1.400100	-24.368600	-29.587000	0 0 0
	143	pv	1.400100	-28.962300	-0.000000	0 0 0
	144	pv	1.400100	-28.962300	-2.958700	0 0 0
	145	pv	1.400100	-28.962300	-5.917400	0 0 0
	146	pv	1.400100	-28.962300	-8.876100	0 0 0
	147	pv	1.400100	-28.962300	-11.834800	0 0 0
	148	pv	1.400100	-28.962300	-14.793500	0 0 0
	149	pv	1.400100	-28.962300	-17.752200	0 0 0
	150	pv	1.400100	-28.962300	-20.710900	0 0 0
	151	pv	1.400100	-28.962300	-23.669600	0 0 0
	152	pv	1.400100	-28.962300	-26.628300	0 0 0
	153	pv	1.400100	-28.962300	-29.587000	0 0 0
	154	pv	3.193600	-3.193600	-0.000000	0 0 0
	155	pv	3.193600	-3.193600	-2.958700	0 0 0
	156	pv	3.193600	-3.193600	-5.917400	0 0 0
	157	pv	3.193600	-3.193600	-8.876100	0 0 0
	158	pv	3.193600	-3.193600	-11.834800	0 0 0
	159	pv	3.193600	-3.193600	-14.793500	0 0 0
	160	pv	3.193600	-3.193600	-17.752200	0 0 0
	161	pv	3.193600	-3.193600	-20.710900	0 0 0
	162	pv	3.193600	-3.193600	-23.669600	0 0 0
	163	pv	3.193600	-3.193600	-26.628300	0 0 0
	164	pv	3.193600	-3.193600	-29.587000	0 0 0
	165	pv	3.193600	-7.787300	-0.000000	0 0 0
	166	pv	3.193600	-7.787300	-2.958700	0 0 0
	167	pv	3.193600	-7.787300	-5.917400	0 0 0
	168	pv	3.193600	-7.787300	-8.876100	0 0 0
	169	pv	3.193600	-7.787300	-11.834800	0 0 0
	170	pv	3.193600	-7.787300	-14.793500	0 0 0
	171	pv	3.193600	-7.787300	-17.752200	0 0 0
	172	pv	3.193600	-7.787300	-20.710900	0 0 0
	173	pv	3.193600	-7.787300	-23.669600	0 0 0
	174	pv	3.193600	-7.787300	-26.628300	0 0 0
	175	pv	3.193600	-7.787300	-29.587000	0 0 0
	176	pv	3.193600	-12.381000	-0.000000	0 0 0
	177	pv	3.193600	-12.381000	-2.958700	0 0 0
	178	pv	3.193600	-12.381000	-5.917400	0 0 0
	179	pv	3.193600	-12.381000	-8.876100	0 0 0
	180	pv	3.193600	-12.381000	-11.834800	0 0 0
	181	pv	3.193600	-12.381000	-14.793500	0 0 0
	182	pv	3.193600	-12.381000	-17.752200	0 0 0
	183	pv	3.193600	-12.381000	-20.710900	0 0 0
	184	pv	3.193600	-12.381000	-23.669600	0 0 0
	185	pv	3.193600	-12.381000	-26.628300	0 0 0
	186	pv	3.193600	-12.381000	-29.587000	0 0 0
	187	pv	3.193600	-16.974700	-0.000000	0 0 0
	188	pv	3.193600	-16.974700	-2.958700	0 0 0
	189	pv	3.193600	-16.974700	-5.917400	0 0 0
	190	pv	3.193600	-16.974700	-8.876100	0 0 0
	191	pv	3.193600	-16.974700	-11.834800	0 0 0
	192	pv	3.193600	-16.974700	-14.793500	0 0 0
	193	pv	3.193600	-16.974700	-17.752200	0 0 0
	194	pv	3.193600	-16.974700	-20.710900	0 0 0
	195	pv	3.193600	-16.974700	-23.669600	0 0 0
	196	pv	3.193600	-16.974700	-26.628300	0 0 0
	197	pv	3.193600	-16.974700	-29.587000	0 0 0
	198	pv	3.193600	-21.568400	-0.000000	0 0 0
	199	pv	3.193600	-21.568400	-2.958700	0 0 0
	200	pv	3.193600	-21.568400	-5.917400	0 0 0
	201	pv	3.193600	-21.568400	-8.876100	0 0 0
	202	pv	3.193600	-21.568400	-11.834800	0 0 0
	203	pv	3.193600	-21.568400	-14.793500	0 0 0
	204	pv	3.193600	-21.568400	-17.752200	0 0 0
	205	pv	3.193600	-21.568400	-20.710900	0 0 0
	206	pv	3.193600	-21.568400	-23.669600	0 0 0
	207	pv	3.193600	-21.568400	-26.628300	0 0 0
	208	pv	3.193600	-21.568400	-29.587000	0 0 0
	209	pv	3.193600	-26.162100	-0.000000	0 0 0
	210	pv	3.193600	-26.162100	-2.958700	0 0 0
	211	pv	3.193600	-26.162100	-5.917400	0 0 0
	212	pv	3.193600	-26.162100	-8.876100	0 0 0
	213	pv	3.193600	-26.162100	-11.834800	0 0 0
	214	pv	3.193600	-26.162100	-14.793500	0 0 0
	215	pv	3.193600	-26.162100	-17.752200	0 0 0
	216	pv	3.193600	-26.162100	-20.710900	0 0 0
	217	pv	3.193600	-26.162100	-23.669600	0 0 0
	218	pv	3.193600	-26.162100	-26.628300	0 0 0
	219	pv	3.193600	-26.162100	-29.587000	0 0 0
	220	pv	3.193600	-30.755800	-0.000000	0 0 0
	221	pv	3.193600	-30.755800	-2.958700	0 0 0
	222	pv	3.193600	-30.755800	-5.917400	0 0 0
	223	pv	3.193600	-30.755800	-8.876100	0 0 0
	224	pv	3.193600	-30.755800	-11.834800	0 0 0
	225	pv	3.193600	-30.755800	-14.793500	0 0 0
	226	pv	3.193600	-30.755800	-17.752200	0 0 0
	227	pv	3.193600	-30.755800	-20.710900	0 0 0
	228	pv	3.193600	-30.755800	-23.669600	0 0 0
	229	pv	3.193600	-30.755800	-26.628300	0 0 0
	230	pv	3.193600	-30.755800	-29.587000	0 0 0
	231	pv	3.696900	-0.896800	-1.479400	0 0 0
	232	pv	3.696900	-0.896800	-4.438100	0 0 0
	233	pv	3.696900	-0.896800	-7.396800	0 0 0
	234	pv	3.696900	-0.896800	-10.355500	0 0 0
	235	pv	3.696900	-0.896800	-13.314200	0 0 0
	236	pv	3.696900	-0.896800	-16.272900	0 0 0
	237	pv	3.696900	-0.896800	-19.231600	0 0 0
	238	pv	3.696900	-0.896800	-22.190300	0 0 0
	239	pv	3.696900	-0.896800	-25.149000	0 0 0
	240	pv	3.696900	-0.896800	-28.107700	0 0 0
	241	pv	3.696900	-0.896800	-31.066400	0 0 0
	242	pv	3.696900	-5.490500	-1.479400	0 0 0
	243	pv	3.696900	-5.490500	-4.438100	0 0 0
	244	pv	3.696900	-5.490500	-7.396800	0 0 0
	245	pv	3.696900	-5.490500	-10.355500	0 0 0
	246	pv	3.696900	-5.490500	-13.314200	0 0 0
	247	pv	3.696900	-5.490500	-16.272900	0 0 0
	248	pv	3.696900	-5.490500	-19.231600	0 0 0
	249	pv	3.696900	-5.490500	-22.190300	0 0 0
	250	pv	3.696900	-5.490500	-25.149000	0 0 0
	251	pv	3.696900	-5.490500	-28.107700	0 0 0
	252	pv	3.696900	-5.490500	-31.066400	0 0 0
	253	pv	3.696900	-10.084200	-1.479400	0 0 0
	254	pv	3.696900	-10.084200	-4.438100	0 0 0
	255	pv	3.696900	-10.084200	-7.396800	0 0 0
	256	pv	3.696900	-10.084200	-10.355500	0 0 0
	257	pv	3.696900	-10.084200	-13.314200	0 0 0
	258	pv	3.696900	-10.084200	-16.272900	0 0 0
	259	pv	3.696900	-10.084200	-19.231600	0 0 0
	260	pv	3.696900	-10.084200	-22.190300	0 0 0
	261	pv	3.696900	-10.084200	-25.149000	0 0 0
	262	pv	3.696900	-10.084200	-28.107700	0 0 0
	263	pv	3.696900	-10.084200	-31.066400	0 0 0
	264	pv	3.696900	-14.677900	-1.479400	0 0 0
	265	pv	3.696900	-14.677900	-4.438100	0 0 0
	266	pv	3.696900	-14.677900	-7.396800	0 0 0
	267	pv	3.696900	-14.677900	-10.355500	0 0 0
	268	pv	3.696900	-14.677900	-13.314200	0 0 0
	269	pv	3.696900	-14.677900	-16.272900	0 0 0
	270	pv	3.696900	-14.677900	-19.231600	0 0 0
	271	pv	3.696900	-14.677900	-22.190300	0 0 0
	272	pv	3.696900	-14.677900	-25.149000	0 0 0
	273	pv	3.696900	-14.677900	-28.107700	0 0 0
	274	pv	3.696900	-14.677900	-31.066400	0 0 0
	275	pv	3.696900	-19.271600	-1.479400	0 0 0
	276	pv	3.696900	-19.271600	-4.438100	0 0 0
	277	pv	3.696900	-19.271600	-7.396800	0 0 0
	278	pv	3.696900	-19.271600	-10.355500	0 0 0
	279	pv	3.696900	-19.271600	-13.314200	0 0 0
	280	pv	3.696900	-19.271600	-16.272900	0 0 0
	281	pv	3.696900	-19.271600	-19.231600	0 0 0
	282	pv	3.696900	-19.271600	-22.190300	0 0 0
	283	pv	3.696900	-19.271600	-25.149000	0 0 0
	284	pv	3.696900	-19.271600	-28.107700	0 0 0
	285	pv	3.696900	-19.271600	-31.066400	0 0 0
	286	pv	3.696900	-23.865300	-1.479400	0 0 0
	287	pv	3.696900	-23.865300	-4.438100	0 0 0
	288	pv	3.696900	-23.865300	-7.396800	0 0 0
	289	pv	3.696900	-23.865300	-10.355500	0 0 0
	290	pv	3.696900	-23.865300	-13.314200	0 0 0
	291	pv	3.696900	-23.865300	-16.272900	0 0 0
	292	pv	3.696900	-23.865300	-19.231600	0 0 0
	293	pv	3.696900	-23.865300	-22.190300	0 0 0
	294	pv	3.696900	-23.865300	-25.149000	0 0 0
	295	pv	3.696900	-23.865300	-28.107700	0 0 0
	296	pv	3.696900	-23.865300	-31.066400	0 0 0
	297	pv	3.696900	-28.459000	-1.479400	0 0 0
	298	pv	3.696900	-28.459000	-4.438100	0 0 0
	299	pv	3.696900	-28.459000	-7.396800	0 0 0
	300	pv	3.696900	-28.459000	-10.355500	0 0 0
	301	pv	3.696900	-28.459000	-13.314200	0 0 0
	302	pv	3.696900	-28.459000	-16.272900	0 0 0
	303	pv	3.696900	-28.459000	-19.231600	0 0 0
	304	pv	3.696900	-28.459000	-22.190300	0 0 0
	305	pv	3.696900	-28.459000	-25.149000	0 0 0
	306	pv	3.696900	-28.459000	-28.107700	0 0 0
	307	pv	3.696900	-28.459000	-31.066400	0 0 0
	308	pv	5.490500	-3.696900	-1.479400	0 0 0
	309	pv	5.490500	-3.696900	-4.438100	0 0 0
	310	pv	5.490500	-3.696900	-7.396800	0 0 0
	311	pv	5.490500	-3.696900	-10.355500	0 0 0
	312	pv	5.490500	-3.696900	-13.314200	0 0 0
	313	pv	5.490500	-3.696900	-16.272900	0 0 0
	314	pv	5.490500	-3.696900	-19.231600	0 0 0
	315	pv	5.490500	-3.696900	-22.190300	0 0 0
	316	pv	5.490500	-3.696900	-25.149000	0 0 0
	317	pv	5.490500	-3.696900	-28.107700	0 0 0
	318	pv	5.490500	-3.696900	-31.066400	0 0 0
	319	pv	5.490500	-8.290600	-1.479400	0 0 0
	320	pv	5.490500	-8.290600	-4.438100	0 0 0
	321	pv	5.490500	-8.290600	-7.396800	0 0 0
	322	pv	5.490500	-8.290600	-10.355500	0 0 0
	323	pv	5.490500	-8.290600	-13.314200	0 0 0
	324	pv	5.490500	-8.290600	-16.272900	0 0 0
	325	pv	5.490500	-8.290600	-19.231600	0 0 0
	326	pv	5.490500	-8.290600	-22.190300	0 0 0
	327	pv	5.490500	-8.290600	-25.149000	0 0 0
	328	pv	5.490500	-8.290600	-28.107700	0 0 0
	329	pv	5.490500	-8.290600	-31.066400	0 0 0
	330	pv	5.490500	-12.884300	-1.479400	0 0 0
	331	pv	5.490500	-12.884300	-4.438100	0 0 0
	332	pv	5.490500	-12.884300	-7.396800	0 0 0
	333	pv	5.490500	-12.884300	-10.355500	0 0 0
	334	pv	5.490500	-12.884300	-13.314200	0 0 0
	335	pv	5.490500	-12.884300	-16.272900	0 0 0
	336	pv	5.490500	-12.884300	-19.231600	0 0 0
	337	pv	5.490500	-12.884300	-22.190300	0 0 0
	338	pv	5.490500	-12.884300	-25.149000	0 0 0
	339	pv	5.490500	-12.884300	-28.107700	0 0 0
	340	pv	5.490500	-12.884300	-31.066400	0 0 0
	341	pv	5.490500	-17.478000	-1.479400	0 0 0
	342	pv	5.490500	-17.478000	-4.438100	0 0 0
	343	pv	5.490500	-17.478000	-7.396800	0 0 0
	344	pv	5.490500	-17.478000	-10.355500	0 0 0
	345	pv	5.490500	-17.478000	-13.314200	0 0 0
	346	pv	5.490500	-17.478000	-16.272900	0 0 0
	347	pv	5.490500	-17.478000	-19.231600	0 0 0
	348	pv	5.490500	-17.478000	-22.190300	0 0 0
	349	pv	5.490500	-17.478000	-25.149000	0 0 0
	350	pv	5.490500	-17.478000	-28.107700	0 0 0
	351	pv	5.490500	-17.478000	-31.066400	0 0 0
	352	pv	5.490500	-22.071700	-1.479400	0 0 0
	353	pv	5.490500	-22.071700	-4.438100	0 0 0
	354	pv	5.490500	-22.071700	-7.396800	0 0 0
	355	pv	5.490500	-22.071700	-10.355500	0 0 0
	356	pv	5.490500	-22.071700	-13.314200	0 0 0
	357	pv	5.490500	-22.071700	-16.272900	0 0 0
	358	pv	5.490500	-22.071700	-19.231600	0 0 0
	359	pv	5.490500	-22.071700	-22.190300	0 0 0
	360	pv	5.490500	-22.071700	-25.149000	0 0 0
	361	pv	5.490500	-22.071700	-28.107700	0 0 0
	362	pv	5.490500	-22.071700	-31.066400	0 0 0
	363	pv	5.490500	-26.665400	-1.479400	0 0 0
	364	pv	5.490500	-26.665400	-4.438100	0 0 0
	365	pv	5.490500	-26.665400	-7.396800	0 0 0
	366	pv	5.490500	-26.665400	-10.355500	0 0 0
	367	pv	5.490500	-26.665400	-13.314200	0 0 0
	368	pv	5.490500	-26.665400	-16.272900	0 0 0
	369	pv	5.490500	-26.665400	-19.231600	0 0 0
	370	pv	5.490500	-26.665400	-22.190300	0 0 0
	371	pv	5.490500	-26.665400	-25.149000	0 0 0
	372	pv	5.490500	-26.665400	-28.107700	0 0 0
	373	pv	5.490500	-26.665400	-31.066400	0 0 0
	374	pv	5.490500	-31.259100	-1.479400	0 0 0
	375	pv	5.490500	-31.259100	-4.438100	0 0 0
	376	pv	5.490500	-31.259100	-7.396800	0 0 0
	377	pv	5.490500	-31.259100	-10.355500	0 0 0
	378	pv	5.490500	-31.259100	-13.314200	0 0 0
	379	pv	5.490500	-31.259100	-16.272900	0 0 0
	380	pv	5.490500	-31.259100	-19.231600	0 0 0
	381	pv	5.490500	-31.259100	-22.190300	0 0 0
	382	pv	5.490500	-31.259100	-25.149000	0 0 0
	383	pv	5.490500	-31.259100	-28.107700	0 0 0
	384	pv	5.490500	-31.259100	-31.066400	0 0 0
	385	pv	5.993800	-1.400100	-0.000000	0 0 0
	386	pv	5.993800	-1.400100	-2.958700	0 0 0
	387	pv	5.993800	-1.400100	-5.917400	0 0 0
	388	pv	5.993800	-1.400100	-8.876100	0 0 0
	389	pv	5.993800	-1.400100	-11.834800	0 0 0
	390	pv	5.993800	-1.400100	-14.793500	0 0 0
	391	pv	5.993800	-1.400100	-17.752200	0 0 0
	392	pv	5.993800	-1.400100	-20.710900	0 0 0
	393	pv	5.993800	-1.400100	-23.669600	0 0 0
	394	pv	5.993800	-1.400100	-26.628300	0 0 0
	395	pv	5.993800	-1.400100	-29.587000	0 0 0
	396	pv	5.993800	-5.993800	-0.000000	0 0 0
	397	pv	5.993800	-5.993800	-2.958700	0 0 0
	398	pv	5.993800	-5.993800	-5.917400	0 0 0
	399	pv	5.993800	-5.993800	-8.876100	0 0 0
	400	pv	5.993800	-5.993800	-11.834800	0 0 0
	401	pv	5.993800	-5.993800	-14.793500	0 0 0
	402	pv	5.993800	-5.993800	-17.752200	0 0 0
	403	pv	5.993800	-5.993800	-20.710900	0 0 0
	404	pv	5.993800	-5.993800	-23.669600	0 0 0
	405	pv	5.993800	-5.993800	-26.628300	0 0 0
	406	pv	5.993800	-5.993800	-29.587000	0 0 0
	407	pv	5.993800	-10.587500	-0.000000	0 0 0
	408	pv	5.993800	-10.587500	-2.958700	0 0 0
	409	pv	5.993800	-10.587500	-5.917400	0 0 0
	410	pv	5.993800	-10.587500	-8.876100	0 0 0
	411	pv	5.993800	-10.587500	-11.834800	0 0 0
	412	pv	5.993800	-10.587500	-14.793500	0 0 0
	413	pv	5.993800	-10.587500	-17.752200	0 0 0
	414	pv	5.993800	-10.587500	-20.710900	0 0 0
	415	pv	5.993800	-10.587500	-23.669600	0 0 0
	416	pv	5.993800	-10.587500	-26.628300	0 0 0
	417	pv	5.993800	-10.587500	-29.587000	0 0 0
	418	pv	5.993800	-15.181200	-0.000000	0 0 0
	419	pv	5.993800	-15.181200	-2.958700	0 0 0
	420	pv	5.993800	-15.181200	-5.917400	0 0 0
	421	pv	5.993800	-15.181200	-8.876100	0 0 0
	422	pv	5.993800	-15.181200	-11.834800	0 0 0
	423	pv	5.993800	-15.181200	-14.793500	0 0 0
	424	pv	5.993800	-15.181200	-17.752200	0 0 0
	425	pv	5.993800	-15.181200	-20.710900	0 0 0
	426	pv	5.993800	-15.181200	-23.669600	0 0 0
	427	pv	5.993800	-15.181200	-26.628300	0 0 0
	428	pv	5.993800	-15.181200	-29.587000	0 0 0
	429	pv	5.993800	-19.774900	-0.000000	0 0 0
	430	pv	5.993800	-19.774900	-2.958700	0 0 0
	431	pv	5.993800	-19.774900	-5.917400	0 0 0
	432	pv	5.993800	-19.774900	-8.876100	0 0 0
	433	pv	5.993800	-19.774900	-11.834800	0 0 0
	434	pv	5.993800	-19.774900	-14.793500	0 0 0
	435	pv	5.993800	-19.774900	-17.752200	0 0 0
	436	pv	5.993800	-19.774900	-20.710900	0 0 0
	437	pv	5.993800	-19.774900	-23.669600	0 0 0
	438	pv	5.993800	-19.774900	-26.628300	0 0 0
	439	pv	5.993800	-19.774900	-29.587000	0 0 0
	440	pv	5.993800	-24.368600	-0.000000	0 0 0
	441	pv	5.993800	-24.368600	-2.958700	0 0 0
	442	pv	5.993800	-24.368600	-5.917400	0 0 0
	443	pv	5.993800	-24.368600	-8.876100	0 0 0
	444	pv	5.993800	-24.368600	-11.834800	0 0 0
	445	pv	5.993800	-24.368600	-14.793500	0 0 0
	446	pv	5.993800	-24.368600	-17.752200	0 0 0
	447	pv	5.993800	-24.368600	-20.710900	0 0 0
	448	pv	5.993800	-24.368600	-23.669600	0 0 0
	449	pv	5.993800	-24.368600	-26.628300	0 0 0
	450	pv	5.993800	-24.368600	-29.587000	0 0 0
	451	pv	5.993800	-28.962300	-0.000000	0 0 0
	452	pv	5.993800	-28.962300	-2.958700	0 0 0
	453	pv	5.993800	-28.962300	-5.917400	0 0 0
	454	pv	5.993800	-28.962300	-8.876100	0 0 0
	455	pv	5.993800	-28.962300	-11.834800	0 0 0
	456	pv	5.993800	-28.962300	-14.793500	0 0 0
	457	pv	5.993800	-28.962300	-17.752200	0 0 0
	458	pv	5.993800	-28.962300	-20.710900	0 0 0
	459	pv	5.993800	-28.962300	-23.669600	0 0 0
	460	pv	5.993800	-28.962300	-26.628300	0 0 0
	461	pv	5.993800	-28.962300	-29.587000	0 0 0
	462	pv	7.787300	-3.193600	-0.000000	0 0 0
	463	pv	7.787300	-3.193600	-2.958700	0 0 0
	464	pv	7.787300	-3.193600	-5.917400	0 0 0
	465	pv	7.787300	-3.193600	-8.876100	0 0 0
	466	pv	7.787300	-3.193600	-11.834800	0 0 0
	467	pv	7.787300	-3.193600	-14.793500	0 0 0
	468	pv	7.787300	-3.193600	-17.752200	0 0 0
	469	pv	7.787300	-3.193600	-20.710900	0 0 0
	470	pv	7.787300	-3.193600	-23.669600	0 0 0
	471	pv	7.787300	-3.193600	-26.628300	0 0 0
	472	pv	7.787300	-3.193600	-29.587000	0 0 0
	473	pv	7.787300	-7.787300	-0.000000	0 0 0
	474	pv	7.787300	-7.787300	-2.958700	0 0 0
	475	pv	7.787300	-7.787300	-5.917400	0 0 0
	476	pv	7.787300	-7.787300	-8.876100	0 0 0
	477	pv	7.787300	-7.787300	-11.834800	0 0 0
	478	pv	7.787300	-7.787300	-14.793500	0 0 0
	479	pv	7.787300	-7.787300	-17.752200	0 0 0
	480	pv	7.787300	-7.787300	-20.710900	0 0 0
	481	pv	7.787300	-7.787300	-23.669600	0 0 0
	482	pv	7.787300	-7.787300	-26.628300	0 0 0
	483	pv	7.787300	-7.787300	-29.587000	0 0 0
	484	pv	7.787300	-12.381000	-0.000000	0 0 0
	485	pv	7.787300	-12.381000	-2.958700	0 0 0
	486	pv	7.787300	-12.381000	-5.917400	0 0 0
	487	pv	7.787300	-12.381000	-8.876100	0 0 0
	488	pv	7.787300	-12.381000	-11.834800	0 0 0
	489	pv	7.787300	-12.381000	-14.793500	0 0 0
	490	pv	7.787300	-12.381000	-17.752200	0 0 0
	491	pv	7.787300	-12.381000	-20.710900	0 0 0
	492	pv	7.787300	-12.381000	-23.669600	0 0 0
	493	pv	7.787300	-12.381000	-26.628300	0 0 0
	494	pv	7.787300	-12.381000	-29.587000	0 0 0
	495	pv	7.787300	-16.974700	-0.000000	0 0 0
	496	pv	7.787300	-16.974700	-2.958700	0 0 0
	497	pv	7.787300	-16.974700	-5.917400	0 0 0
	498	pv	7.787300	-16.974700	-8.876100	0 0 0
	499	pv	7.787300	-16.974700	-11.834800	0 0 0
	500	pv	7.787300	-16.974700	-14.793500	0 0 0
	501	pv	7.787300	-16.974700	-17.752200	0 0 0
	502	pv	7.787300	-16.974700	-20.710900	0 0 0
	503	pv	7.787300	-16.974700	-23.669600	0 0 0
	504	pv	7.787300	-16.974700	-26.628300	0 0 0
	505	pv	7.787300	-16.974700	-29.587000	0 0 0
	506	pv	7.787300	-21.568400	-0.000000	0 0 0
	507	pv	7.787300	-21.568400	-2.958700	0 0 0
	508	pv	7.787300	-21.568400	-5.917400	0 0 0
	509	pv	7.787300	-21.568400	-8.876100	0 0 0
	510	pv	7.787300	-21.568400	-11.834800	0 0 0
	511	pv	7.787300	-21.568400	-14.793500	0 0 0
	512	pv	7.787300	-21.568400	-17.752200	0 0 0
	513	pv	7.787300	-21.568400	-20.710900	0 0 0
	514	pv	7.787300	-21.568400	-23.669600	0 0 0
	515	pv	7.787300	-21.568400	-26.628300	0 0 0
	516	pv	7.787300	-21.568400	-29.587000	0 0 0
	517	pv	7.787300	-26.162100	-0.000000	0 0 0
	518	pv	7.787300	-26.162100	-2.958700	0 0 0
	519	pv	7.787300	-26.162100	-5.917400	0 0 0
	520	pv	7.787300	-26.162100	-8.876100	0 0 0
	521	pv	7.787300	-26.162100	-11.834800	0 0 0
	522	pv	7.787300	-26.162100	-14.793500	0 0 0
	523	pv	7.787300	-26.162100	-17.752200	0 0 0
	524	pv	7.787300	-26.162100	-20.710900	0 0 0
	525	pv	7.787300	-26.162100	-23.669600	0 0 0
	526	pv	7.787300	-26.162100	-26.628300	0 0 0
	527	pv	7.787300	-26.162100	-29.587000	0 0 0
	528	pv	7.787300	-30.755800	-0.000000	0 0 0
	529	pv	7.787300	-30.755800	-2.958700	0 0 0
	530	pv	7.787300	-30.755800	-5.917400	0 0 0
	531	pv	7.787300	-30.755800	-8.876100	0 0 0
	532	pv	7.787300	-30.755800	-11.834800	0 0 0
	533	pv	7.787300	-30.755800	-14.793500	0 0 0
	534	pv	7.787300	-30.755800	-17.752200	0 0 0
	535	pv	7.787300	-30.755800	-20.710900	0 0 0
	536	pv	7.787300	-30.755800	-23.669600	0 0 0
	537	pv	7.787300	-30.755800	-26.628300	0 0 0
	538	pv	7.787300	-30.755800	-29.587000	0 0 0
	539	pv	8.290600	-0.896800	-1.479400	0 0 0
	540	pv	8.290600	-0.896800	-4.438100	0 0 0
	541	pv	8.290600	-0.896800	-7.396800	0 0 0
	542	pv	8.290600	-0.896800	-10.355500	0 0 0
	543	pv	8.290600	-0.896800	-13.314200	0 0 0
	544	pv	8.290600	-0.896800	-16.272900	0 0 0
	545	pv	8.290600	-0.896800	-19.231600	0 0 0
	546	pv	8.290600	-0.896800	-22.190300	0 0 0
	547	pv	8.290600	-0.896800	-25.149000	0 0 0
	548	pv	8.290600	-0.896800	-28.107700	0 0 0
	549	pv	8.290600	-0.896800	-31.066400	0 0 0
	550	pv	8.290600	-5.490500	-1.479400	0 0 0
	551	pv	8.290600	-5.490500	-4.438100	0 0 0
	552	pv	8.290600	-5.490500	-7.396800	0 0 0
	553	pv	8.290600	-5.490500	-10.355500	0 0 0
	554	pv	8.290600	-5.490500	-13.314200	0 0 0
	555	pv	8.290600	-5.490500	-16.272900	0 0 0
	556	pv	8.290600	-5.490500	-19.231600	0 0 0
	557	pv	8.290600	-5.490500	-22.190300	0 0 0
	558	pv	8.290600	-5.490500	-25.149000	0 0 0
	559	pv	8.290600	-5.490500	-28.107700	0 0 0
	560	pv	8.290600	-5.490500	-31.066400	0 0 0
	561	pv	8.290600	-10.084200	-1.479400	0 0 0
	562	pv	8.290600	-10.084200	-4.438100	0 0 0
	563	pv	8.290600	-10.084200	-7.396800	0 0 0
	564	pv	8.290600	-10.084200	-10.355500	0 0 0
	565	pv	8.290600	-10.084200	-13.314200	0 0 0
	566	pv	8.290600	-10.084200	-16.272900	0 0 0
	567	pv	8.290600	-10.084200	-19.231600	0 0 0
	568	pv	8.290600	-10.084200	-22.190300	0 0 0
	569	pv	8.290600	-10.084200	-25.149000	0 0 0
	570	pv	8.290600	-10.084200	-28.107700	0 0 0
	571	pv	8.290600	-10.084200	-31.066400	0 0 0
	572	pv	8.290600	-14.677900	-1.479400	0 0 0
	573	pv	8.290600	-14.677900	-4.438100	0 0 0
	574	pv	8.290600	-14.677900	-7.396800	0 0 0
	575	pv	8.290600	-14.677900	-10.355500	0 0 0
	576	pv	8.290600	-14.677900	-13.314200	0 0 0
	577	pv	8.290600	-14.677900	-16.272900	0 0 0
	578	pv	8.290600	-14.677900	-19.231600	0 0 0
	579	pv	8.290600	-14.677900	-22.190300	0 0 0
	580	pv	8.290600	-14.677900	-25.149000	0 0 0
	581	pv	8.290600	-14.677900	-28.107700	0 0 0
	582	pv	8.290600	-14.677900	-31.066400	0 0 0
	583	pv	8.290600	-19.271600	-1.479400	0 0 0
	584	pv	8.290600	-19.271600	-4.438100	0 0 0
	585	pv	8.290600	-19.271600	-7.396800	0 0 0
	586	pv	8.290600	-19.271600	-10.355500	0 0 0
	587	pv	8.290600	-19.271600	-13.314200	0 0 0
	588	pv	8.290600	-19.271600	-16.272900	0 0 0
	589	pv	8.290600	-19.271600	-19.231600	0 0 0
	590	pv	8.290600	-19.271600	-22.190300	0 0 0
	591	pv	8.290600	-19.271600	-25.149000	0 0 0
	592	pv	8.290600	-19.271600	-28.107700	0 0 0
	593	pv	8.290600	-19.271600	-31.066400	0 0 0
	594	pv	8.290600	-23.865300	-1.479400	0 0 0
	595	pv	8.290600	-23.865300	-4.438100	0 0 0
	596	pv	8.290600	-23.865300	-7.396800	0 0 0
	597	pv	8.290600	-23.865300	-10.355500	0 0 0
	598	pv	8.290600	-23.865300	-13.314200	0 0 0
	599	pv	8.290600	-23.865300	-16.272900	0 0 0
	600	pv	8.290600	-23.865300	-19.231600	0 0 0
	601	pv	8.290600	-23.865300	-22.190300	0 0 0
	602	pv	8.290600	-23.865300	-25.149000	0 0 0
	603	pv	8.290600	-23.865300	-28.107700	0 0 0
	604	pv	8.290600	-23.865300	-31.066400	0 0 0
	605	pv	8.290600	-28.459000	-1.479400	0 0 0
	606	pv	8.290600	-28.459000	-4.438100	0 0 0
	607	pv	8.290600	-28.459000	-7.396800	0 0 0
	608	pv	8.290600	-28.459000	-10.355500	0 0 0
	609	pv	8.290600	-28.459000	-13.314200	0 0 0
	610	pv	8.290600	-28.459000	-16.272900	0 0 0
	611	pv	8.290600	-28.459000	-19.231600	0 0 0
	612	pv	8.290600	-28.459000	-22.190300	0 0 0
	613	pv	8.290600	-28.459000	-25.149000	0 0 0
	614	pv	8.290600	-28.459000	-28.107700	0 0 0
	615	pv	8.290600	-28.459000	-31.066400	0 0 0
	616	pv	10.084200	-3.696900	-1.479400	0 0 0
	617	pv	10.084200	-3.696900	-4.438100	0 0 0
	618	pv	10.084200	-3.696900	-7.396800	0 0 0
	619	pv	10.084200	-3.696900	-10.355500	0 0 0
	620	pv	10.084200	-3.696900	-13.314200	0 0 0
	621	pv	10.084200	-3.696900	-16.272900	0 0 0
	622	pv	10.084200	-3.696900	-19.231600	0 0 0
	623	pv	10.084200	-3.696900	-22.190300	0 0 0
	624	pv	10.084200	-3.696900	-25.149000	0 0 0
	625	pv	10.084200	-3.696900	-28.107700	0 0 0
	626	pv	10.084200	-3.696900	-31.066400	0 0 0
	627	pv	10.084200	-8.290600	-1.479400	0 0 0
	628	pv	10.084200	-8.290600	-4.438100	0 0 0
	629	pv	10.084200	-8.290600	-7.396800	0 0 0
	630	pv	10.084200	-8.290600	-10.355500	0 0 0
	631	pv	10.084200	-8.290600	-13.314200	0 0 0
	632	pv	10.084200	-8.290600	-16.272900	0 0 0
	633	pv	10.084200	-8.290600	-19.231600	0 0 0
	634	pv	10.084200	-8.290600	-22.190300	0 0 0
	635	pv	10.084200	-8.290600	-25.149000	0 0 0
	636	pv	10.084200	-8.290600	-28.107700	0 0 0
	637	pv	10.084200	-8.290600	-31.066400	0 0 0
	638	pv	10.084200	-12.884300	-1.479400	0 0 0
	639	pv	10.084200	-12.884300	-4.438100	0 0 0
	640	pv	10.084200	-12.884300	-7.396800	0 0 0
	641	pv	10.084200	-12.884300	-10.355500	0 0 0
	642	pv	10.084200	-12.884300	-13.314200	0 0 0
	643	pv	10.084200	-12.884300	-16.272900	0 0 0
	644	pv	10.084200	-12.884300	-19.231600	0 0 0
	645	pv	10.084200	-12.884300	-22.190300	0 0 0
	646	pv	10.084200	-12.884300	-25.149000	0 0 0
	647	pv	10.084200	-12.884300	-28.107700	0 0 0
	648	pv	10.084200	-12.884300	-31.066400	0 0 0
	649	pv	10.084200	-17.478000	-1.479400	0 0 0
	650	pv	10.084200	-17.478000	-4.438100	0 0 0
	651	pv	10.084200	-17.478000	-7.396800	0 0 0