<OpenMD version=1>
  <MetaData>

molecule{
  name = "W";

  atom[0]{
    type="W_FQ";
    position( 0.0, 0.0, 0.0 );
  }
}

molecule{
  name = "O";

  atom[0]{
    type="O_FQ";
    position( 0.0, 0.0, 0.0 );
  }
}

component{
  type = "W";
        nMol = 648;
}
component{
  type = "O";
        nMol = 1296;
}

flucQ {
  propagator = "Damped";
  targetTemp = 1;
  dragCoefficient = 1;
}

forceField = "DR-EAM";
forceFieldFileName="DR-EAM.frc";

outputFluctuatingCharges = true;
outputElectricField = true;
outputDensity = true;

ensemble = NVT;
dt = 0.1;
runTime = 1;
sampleTime = 1;
statusTime = 1;
targetTemp = 10;
tauThermostat = 100;

cutoffMethod = "shifted_force";
cutoffRadius = 12;
electrostaticScreeningMethod = "DAMPED";
dampingAlpha = 0.105;

statFileFormat = "TIME|TOTAL_ENERGY|POTENTIAL_ENERGY|KINETIC_ENERGY|TEMPERATURE|PRESSURE|VOLUME|CONSERVED_QUANTITY|SYSTEM DIPOLE";

  </MetaData>
  <Snapshot>
    <FrameData>
        Time: 0
        Hmat: {{ 32.34567, 0, 0 }, { 0, 25.44768, 0 }, { 0, 0, 28.94706 }}
  Thermostat: 0 , 0
    Barostat: {{ 0, 0, 0 }, { 0, 0, 0 }, { 0, 0, 0 }}
    </FrameData>
    <StuntDoubles>
	0	pv	-20.114483	-16.178265	-12.099577	0	0	0
	1	pv	-20.114483	-16.178265	-7.275067	0	0	0
	2	pv	-20.114483	-16.178265	-2.450557	0	0	0
	3	pv	-20.114483	-16.178265	2.373953	0	0	0
	4	pv	-20.114483	-16.178265	7.198463	0	0	0
	5	pv	-20.114483	-16.178265	12.022973	0	0	0
	6	pv	-20.114483	-7.695703	-12.099577	0	0	0
	7	pv	-20.114483	-7.695703	-7.275067	0	0	0
	8	pv	-20.114483	-7.695703	-2.450557	0	0	0
	9	pv	-20.114483	-7.695703	2.373953	0	0	0
	10	pv	-20.114483	-7.695703	7.198463	0	0	0
	11	pv	-20.114483	-7.695703	12.022973	0	0	0
	12	pv	-20.114483	0.786859	-12.099577	0	0	0
	13	pv	-20.114483	0.786859	-7.275067	0	0	0
	14	pv	-20.114483	0.786859	-2.450557	0	0	0
	15	pv	-20.114483	0.786859	2.373953	0	0	0
	16	pv	-20.114483	0.786859	7.198463	0	0	0
	17	pv	-20.114483	0.786859	12.022973	0	0	0
	18	pv	-9.332597	-16.178265	-12.099577	0	0	0
	19	pv	-9.332597	-16.178265	-7.275067	0	0	0
	20	pv	-9.332597	-16.178265	-2.450557	0	0	0
	21	pv	-9.332597	-16.178265	2.373953	0	0	0
	22	pv	-9.332597	-16.178265	7.198463	0	0	0
	23	pv	-9.332597	-16.178265	12.022973	0	0	0
	24	pv	-9.332597	-7.695703	-12.099577	0	0	0
	25	pv	-9.332597	-7.695703	-7.275067	0	0	0
	26	pv	-9.332597	-7.695703	-2.450557	0	0	0
	27	pv	-9.332597	-7.695703	2.373953	0	0	0
	28	pv	-9.332597	-7.695703	7.198463	0	0	0
	29	pv	-9.332597	-7.695703	12.022973	0	0	0
	30	pv	-9.332597	0.786859	-12.099577	0	0	0
	31	pv	-9.332597	0.786859	-7.275067	0	0	0
	32	pv	-9.332597	0.786859	-2.450557	0	0	0
	33	pv	-9.332597	0.786859	2.373953	0	0	0
	34	pv	-9.332597	0.786859	7.198463	0	0	0
	35	pv	-9.332597	0.786859	12.022973	0	0	0
	36	pv	1.44929	-16.178265	-12.099577	0	0	0
	37	pv	1.44929	-16.178265	-7.275067	0	0	0
	38	pv	1.44929	-16.178265	-2.450557	0	0	0
	39	pv	1.44929	-16.178265	2.373953	0	0	0
	40	pv	1.44929	-16.178265	7.198463	0	0	0
	41	pv	1.44929	-16.178265	12.022973	0	0	0
	42	pv	1.44929	-7.695703	-12.099577	0	0	0
	43	pv	1.44929	-7.695703	-7.275067	0	0	0
	44	pv	1.44929	-7.695703	-2.450557	0	0	0
	45	pv	1.44929	-7.695703	2.373953	0	0	0
	46	pv	1.44929	-7.695703	7.198463	0	0	0
	47	pv	1.44929	-7.695703	12.022973	0	0	0
	48	pv	1.44929	0.786859	-12.099577	0	0	0
	49	pv	1.44929	0.786859	-7.275067	0	0	0
	50	pv	1.44929	0.786859	-2.450557	0	0	0
	51	pv	1.44929	0.786859	2.373953	0	0	0
	52	pv	1.44929	0.786859	7.198463	0	0	0
	53	pv	1.44929	0.786859	12.022973	0	0	0
	54	pv	-12.231177	-9.269422	-12.022973	0	0	0
	55	pv	-12.231177	-9.269422	-7.198463	0	0	0
	56	pv	-12.231177	-9.269422	-2.373953	0	0	0
	57	pv	-12.231177	-9.269422	2.450557	0	0	0
	58	pv	-12.231177	-9.269422	7.275067	0	0	0
	59	pv	-12.231177	-9.269422	12.099577	0	0	0
	60	pv	-12.231177	-0.78686	-12.022973	0	0	0
	61	pv	-12.231177	-0.78686	-7.198463	0	0	0
	62	pv	-12.231177	-0.78686	-2.373953	0	0	0
	63	pv	-12.231177	-0.78686	2.450557	0	0	0
	64	pv	-12.231177	-0.78686	7.275067	0	0	0
	65	pv	-12.231177	-0.78686	12.099577	0	0	0
	66	pv	-12.231177	7.695703	-12.022973	0	0	0
	67	pv	-12.231177	7.695703	-7.198463	0	0	0
	68	pv	-12.231177	7.695703	-2.373953	0	0	0
	69	pv	-12.231177	7.695703	2.450557	0	0	0
	70	pv	-12.231177	7.695703	7.275067	0	0	0
	71	pv	-12.231177	7.695703	12.099577	0	0	0
	72	pv	-1.44929	-9.269422	-12.022973	0	0	0
	73	pv	-1.44929	-9.269422	-7.198463	0	0	0
	74	pv	-1.44929	-9.269422	-2.373953	0	0	0
	75	pv	-1.44929	-9.269422	2.450557	0	0	0
	76	pv	-1.44929	-9.269422	7.275067	0	0	0
	77	pv	-1.44929	-9.269422	12.099577	0	0	0
	78	pv	-1.44929	-0.78686	-12.022973	0	0	0
	79	pv	-1.44929	-0.78686	-7.198463	0	0	0
	80	pv	-1.44929	-0.78686	-2.373953	0	0	0
	81	pv	-1.44929	-0.78686	2.450557	0	0	0
	82	pv	-1.44929	-0.78686	7.275067	0	0	0
	83	pv	-1.44929	-0.78686	12.099577	0	0	0
	84	pv	-1.44929	7.695703	-12.022973	0	0	0
	85	pv	-1.44929	7.695703	-7.198463	0	0	0
	86	pv	-1.44929	7.695703	-2.373953	0	0	0
	87	pv	-1.44929	7.695703	2.450557	0	0	0
	88	pv	-1.44929	7.695703	7.275067	0	0	0
	89	pv	-1.44929	7.695703	12.099577	0	0	0
	90	pv	9.332597	-9.269422	-12.022973	0	0	0
	91	pv	9.332597	-9.269422	-7.198463	0	0	0
	92	pv	9.332597	-9.269422	-2.373953	0	0	0
	93	pv	9.332597	-9.269422	2.450557	0	0	0
	94	pv	9.332597	-9.269422	7.275067	0	0	0
	95	pv	9.332597	-9.269422	12.099577	0	0	0
	96	pv	9.332597	-0.78686	-12.022973	0	0	0
	97	pv	9.332597	-0.78686	-7.198463	0	0	0
	98	pv	9.332597	-0.78686	-2.373953	0	0	0
	99	pv	9.332597	-0.78686	2.450557	0	0	0
	100	pv	9.332597	-0.78686	7.275067	0	0	0
	101	pv	9.332597	-0.78686	12.099577	0	0	0
	102	pv	9.332597	7.695703	-12.022973	0	0	0
	103	pv	9.332597	7.695703	-7.198463	0	0	0
	104	pv	9.332597	7.695703	-2.373953	0	0	0
	105	pv	9.332597	7.695703	2.450557	0	0	0
	106	pv	9.332597	7.695703	7.275067	0	0	0
	107	pv	9.332597	7.695703	12.099577	0	0	0
	108	pv	-17.622122	-9.269422	-9.687321	0	0	0
	109	pv	-17.622122	-9.269422	-4.862812	0	0	0
	110	pv	-17.622122	-9.269422	-0.038301	0	0	0
	111	pv	-17.622122	-9.269422	4.786209	0	0	0
	112	pv	-17.622122	-9.269422	9.610719	0	0	0
	113	pv	-17.622122	-9.269422	14.435228	0	0	0
	114	pv	-17.622122	-0.78686	-9.687321	0	0	0
	115	pv	-17.622122	-0.78686	-4.862812	0	0	0
	116	pv	-17.622122	-0.78686	-0.038301	0	0	0
	117	pv	-17.622122	-0.78686	4.786209	0	0	0
	118	pv	-17.622122	-0.78686	9.610719	0	0	0
	119	pv	-17.622122	-0.78686	14.435228	0	0	0
	120	pv	-17.622122	7.695703	-9.687321	0	0	0
	121	pv	-17.622122	7.695703	-4.862812	0	0	0
	122	pv	-17.622122	7.695703	-0.038301	0	0	0
	123	pv	-17.622122	7.695703	4.786209	0	0	0
	124	pv	-17.622122	7.695703	9.610719	0	0	0
	125	pv	-17.622122	7.695703	14.435228	0	0	0
	126	pv	-6.840234	-9.269422	-9.687321	0	0	0
	127	pv	-6.840234	-9.269422	-4.862812	0	0	0
	128	pv	-6.840234	-9.269422	-0.038301	0	0	0
	129	pv	-6.840234	-9.269422	4.786209	0	0	0
	130	pv	-6.840234	-9.269422	9.610719	0	0	0
	131	pv	-6.840234	-9.269422	14.435228	0	0	0
	132	pv	-6.840234	-0.78686	-9.687321	0	0	0
	133	pv	-6.840234	-0.78686	-4.862812	0	0	0
	134	pv	-6.840234	-0.78686	-0.038301	0	0	0
	135	pv	-6.840234	-0.78686	4.786209	0	0	0
	136	pv	-6.840234	-0.78686	9.610719	0	0	0
	137	pv	-6.840234	-0.78686	14.435228	0	0	0
	138	pv	-6.840234	7.695703	-9.687321	0	0	0
	139	pv	-6.840234	7.695703	-4.862812	0	0	0
	140	pv	-6.840234	7.695703	-0.038301	0	0	0
	141	pv	-6.840234	7.695703	4.786209	0	0	0
	142	pv	-6.840234	7.695703	9.610719	0	0	0
	143	pv	-6.840234	7.695703	14.435228	0	0	0
	144	pv	3.941653	-9.269422	-9.687321	0	0	0
	145	pv	3.941653	-9.269422	-4.862812	0	0	0
	146	pv	3.941653	-9.269422	-0.038301	0	0	0
	147	pv	3.941653	-9.269422	4.786209	0	0	0
	148	pv	3.941653	-9.269422	9.610719	0	0	0
	149	pv	3.941653	-9.269422	14.435228	0	0	0
	150	pv	3.941653	-0.78686	-9.687321	0	0	0
	151	pv	3.941653	-0.78686	-4.862812	0	0	0
	152	pv	3.941653	-0.78686	-0.038301	0	0	0
	153	pv	3.941653	-0.78686	4.786209	0	0	0
	154	pv	3.941653	-0.78686	9.610719	0	0	0
	155	pv	3.941653	-0.78686	14.435228	0	0	0
	156	pv	3.941653	7.695703	-9.687321	0	0	0
	157	pv	3.941653	7.695703	-4.862812	0	0	0
	158	pv	3.941653	7.695703	-0.038301	0	0	0
	159	pv	3.941653	7.695703	4.786209	0	0	0
	160	pv	3.941653	7.695703	9.610719	0	0	0
	161	pv	3.941653	7.695703	14.435228	0	0	0
	162	pv	-14.72354	-16.178265	-14.435228	0	0	0
	163	pv	-14.72354	-16.178265	-9.610719	0	0	0
	164	pv	-14.72354	-16.178265	-4.786208	0	0	0
	165	pv	-14.72354	-16.178265	0.038302	0	0	0
	166	pv	-14.72354	-16.178265	4.862812	0	0	0
	167	pv	-14.72354	-16.178265	9.687322	0	0	0
	168	pv	-14.72354	-7.695703	-14.435228	0	0	0
	169	pv	-14.72354	-7.695703	-9.610719	0	0	0
	170	pv	-14.72354	-7.695703	-4.786208	0	0	0
	171	pv	-14.72354	-7.695703	0.038302	0	0	0
	172	pv	-14.72354	-7.695703	4.862812	0	0	0
	173	pv	-14.72354	-7.695703	9.687322	0	0	0
	174	pv	-14.72354	0.786859	-14.435228	0	0	0
	175	pv	-14.72354	0.786859	-9.610719	0	0	0
	176	pv	-14.72354	0.786859	-4.786208	0	0	0
	177	pv	-14.72354	0.786859	0.038302	0	0	0
	178	pv	-14.72354	0.786859	4.862812	0	0	0
	179	pv	-14.72354	0.786859	9.687322	0	0	0
	180	pv	-3.941653	-16.178265	-14.435228	0	0	0
	181	pv	-3.941653	-16.178265	-9.610719	0	0	0
	182	pv	-3.941653	-16.178265	-4.786208	0	0	0
	183	pv	-3.941653	-16.178265	0.038302	0	0	0
	184	pv	-3.941653	-16.178265	4.862812	0	0	0
	185	pv	-3.941653	-16.178265	9.687322	0	0	0
	186	pv	-3.941653	-7.695703	-14.435228	0	0	0
	187	pv	-3.941653	-7.695703	-9.610719	0	0	0
	188	pv	-3.941653	-7.695703	-4.786208	0	0	0
	189	pv	-3.941653	-7.695703	0.038302	0	0	0
	190	pv	-3.941653	-7.695703	4.862812	0	0	0
	191	pv	-3.941653	-7.695703	9.687322	0	0	0
	192	pv	-3.941653	0.786859	-14.435228	0	0	0
	193	pv	-3.941653	0.786859	-9.610719	0	0	0
	194	pv	-3.941653	0.786859	-4.786208	0	0	0
	195	pv	-3.941653	0.786859	0.038302	0	0	0
	196	pv	-3.941653	0.786859	4.862812	0	0	0
	197	pv	-3.941653	0.786859	9.687322	0	0	0
	198	pv	6.840234	-16.178265	-14.435228	0	0	0
	199	pv	6.840234	-16.178265	-9.610719	0	0	0
	200	pv	6.840234	-16.178265	-4.786208	0	0	0
	201	pv	6.840234	-16.178265	0.038302	0	0	0
	202	pv	6.840234	-16.178265	4.862812	0	0	0
	203	pv	6.840234	-16.178265	9.687322	0	0	0
	204	pv	6.840234	-7.695703	-14.435228	0	0	0
	205	pv	6.840234	-7.695703	-9.610719	0	0	0
	206	pv	6.840234	-7.695703	-4.786208	0	0	0
	207	pv	6.840234	-7.695703	0.038302	0	0	0
	208	pv	6.840234	-7.695703	4.862812	0	0	0
	209	pv	6.840234	-7.695703	9.687322	0	0	0
	210	pv	6.840234	0.786859	-14.435228	0	0	0
	211	pv	6.840234	0.786859	-9.610719	0	0	0
	212	pv	6.840234	0.786859	-4.786208	0	0	0
	213	pv	6.840234	0.786859	0.038302	0	0	0
	214	pv	6.840234	0.786859	4.862812	0	0	0
	215	pv	6.840234	0.786859	9.687322	0	0	0
	216	pv	-12.231177	-11.936983	-12.022973	0	0	0
	217	pv	-12.231177	-11.936983	-7.198463	0	0	0
	218	pv	-12.231177	-11.936983	-2.373953	0	0	0
	219	pv	-12.231177	-11.936983	2.450557	0	0	0
	220	pv	-12.231177	-11.936983	7.275067	0	0	0
	221	pv	-12.231177	-11.936983	12.099577	0	0	0
	222	pv	-12.231177	-3.454422	-12.022973	0	0	0
	223	pv	-12.231177	-3.454422	-7.198463	0	0	0
	224	pv	-12.231177	-3.454422	-2.373953	0	0	0
	225	pv	-12.231177	-3.454422	2.450557	0	0	0
	226	pv	-12.231177	-3.454422	7.275067	0	0	0
	227	pv	-12.231177	-3.454422	12.099577	0	0	0
	228	pv	-12.231177	5.028141	-12.022973	0	0	0
	229	pv	-12.231177	5.028141	-7.198463	0	0	0
	230	pv	-12.231177	5.028141	-2.373953	0	0	0
	231	pv	-12.231177	5.028141	2.450557	0	0	0
	232	pv	-12.231177	5.028141	7.275067	0	0	0
	233	pv	-12.231177	5.028141	12.099577	0	0	0
	234	pv	-1.44929	-11.936983	-12.022973	0	0	0
	235	pv	-1.44929	-11.936983	-7.198463	0	0	0
	236	pv	-1.44929	-11.936983	-2.373953	0	0	0
	237	pv	-1.44929	-11.936983	2.450557	0	0	0
	238	pv	-1.44929	-11.936983	7.275067	0	0	0
	239	pv	-1.44929	-11.936983	12.099577	0	0	0
	240	pv	-1.44929	-3.454422	-12.022973	0	0	0
	241	pv	-1.44929	-3.454422	-7.198463	0	0	0
	242	pv	-1.44929	-3.454422	-2.373953	0	0	0
	243	pv	-1.44929	-3.454422	2.450557	0	0	0
	244	pv	-1.44929	-3.454422	7.275067	0	0	0
	245	pv	-1.44929	-3.454422	12.099577	0	0	0
	246	pv	-1.44929	5.028141	-12.022973	0	0	0
	247	pv	-1.44929	5.028141	-7.198463	0	0	0
	248	pv	-1.44929	5.028141	-2.373953	0	0	0
	249	pv	-1.44929	5.028141	2.450557	0	0	0
	250	pv	-1.44929	5.028141	7.275067	0	0	0
	251	pv	-1.44929	5.028141	12.099577	0	0	0
	252	pv	9.332597	-11.936983	-12.022973	0	0	0
	253	pv	9.332597	-11.936983	-7.198463	0	0	0
	254	pv	9.332597	-11.936983	-2.373953	0	0	0
	255	pv	9.332597	-11.936983	2.450557	0	0	0
	256	pv	9.332597	-11.936983	7.275067	0	0	0
	257	pv	9.332597	-11.936983	12.099577	0	0	0
	258	pv	9.332597	-3.454422	-12.022973	0	0	0
	259	pv	9.332597	-3.454422	-7.198463	0	0	0
	260	pv	9.332597	-3.454422	-2.373953	0	0	0
	261	pv	9.332597	-3.454422	2.450557	0	0	0
	262	pv	9.332597	-3.454422	7.275067	0	0	0
	263	pv	9.332597	-3.454422	12.099577	0	0	0
	264	pv	9.332597	5.028141	-12.022973	0	0	0
	265	pv	9.332597	5.028141	-7.198463	0	0	0
	266	pv	9.332597	5.028141	-2.373953	0	0	0
	267	pv	9.332597	5.028141	2.450557	0	0	0
	268	pv	9.332597	5.028141	7.275067	0	0	0
	269	pv	9.332597	5.028141	12.099577	0	0	0
	270	pv	-20.114483	-13.510702	-12.099577	0	0	0
	271	pv	-20.114483	-13.510702	-7.275067	0	0	0
	272	pv	-20.114483	-13.510702	-2.450557	0	0	0
	273	pv	-20.114483	-13.510702	2.373953	0	0	0
	274	pv	-20.114483	-13.510702	7.198463	0	0	0
	275	pv	-20.114483	-13.510702	12.022973	0	0	0
	276	pv	-20.114483	-5.02814	-12.099577	0	0	0
	277	pv	-20.114483	-5.02814	-7.275067	0	0	0
	278	pv	-20.114483	-5.02814	-2.450557	0	0	0
	279	pv	-20.114483	-5.02814	2.373953	0	0	0
	280	pv	-20.114483	-5.02814	7.198463	0	0	0
	281	pv	-20.114483	-5.02814	12.022973	0	0	0
	282	pv	-20.114483	3.454422	-12.099577	0	0	0
	283	pv	-20.114483	3.454422	-7.275067	0	0	0
	284	pv	-20.114483	3.454422	-2.450557	0	0	0
	285	pv	-20.114483	3.454422	2.373953	0	0	0
	286	pv	-20.114483	3.454422	7.198463	0	0	0
	287	pv	-20.114483	3.454422	12.022973	0	0	0
	288	pv	-9.332597	-13.510702	-12.099577	0	0	0
	289	pv	-9.332597	-13.510702	-7.275067	0	0	0
	290	pv	-9.332597	-13.510702	-2.450557	0	0	0
	291	pv	-9.332597	-13.510702	2.373953	0	0	0
	292	pv	-9.332597	-13.510702	7.198463	0	0	0
	293	pv	-9.332597	-13.510702	12.022973	0	0	0
	294	pv	-9.332597	-5.02814	-12.099577	0	0	0
	295	pv	-9.332597	-5.02814	-7.275067	0	0	0
	296	pv	-9.332597	-5.02814	-2.450557	0	0	0
	297	pv	-9.332597	-5.02814	2.373953	0	0	0
	298	pv	-9.332597	-5.02814	7.198463	0	0	0
	299	pv	-9.332597	-5.02814	12.022973	0	0	0
	300	pv	-9.332597	3.454422	-12.099577	0	0	0
	301	pv	-9.332597	3.454422	-7.275067	0	0	0
	302	pv	-9.332597	3.454422	-2.450557	0	0	0
	303	pv	-9.332597	3.454422	2.373953	0	0	0
	304	pv	-9.332597	3.454422	7.198463	0	0	0
	305	pv	-9.332597	3.454422	12.022973	0	0	0
	306	pv	1.44929	-13.510702	-12.099577	0	0	0
	307	pv	1.44929	-13.510702	-7.275067	0	0	0
	308	pv	1.44929	-13.510702	-2.450557	0	0	0
	309	pv	1.44929	-13.510702	2.373953	0	0	0
	310	pv	1.44929	-13.510702	7.198463	0	0	0
	311	pv	1.44929	-13.510702	12.022973	0	0	0
	312	pv	1.44929	-5.02814	-12.099577	0	0	0
	313	pv	1.44929	-5.02814	-7.275067	0	0	0
	314	pv	1.44929	-5.02814	-2.450557	0	0	0
	315	pv	1.44929	-5.02814	2.373953	0	0	0
	316	pv	1.44929	-5.02814	7.198463	0	0	0
	317	pv	1.44929	-5.02814	12.022973	0	0	0
	318	pv	1.44929	3.454422	-12.099577	0	0	0
	319	pv	1.44929	3.454422	-7.275067	0	0	0
	320	pv	1.44929	3.454422	-2.450557	0	0	0
	321	pv	1.44929	3.454422	2.373953	0	0	0
	322	pv	1.44929	3.454422	7.198463	0	0	0
	323	pv	1.44929	3.454422	12.022973	0	0	0
	324	pv	-14.72354	-13.510702	-14.435228	0	0	0
	325	pv	-14.72354	-13.510702	-9.610719	0	0	0
	326	pv	-14.72354	-13.510702	-4.786208	0	0	0
	327	pv	-14.72354	-13.510702	0.038302	0	0	0
	328	pv	-14.72354	-13.510702	4.862812	0	0	0
	329	pv	-14.72354	-13.510702	9.687322	0	0	0
	330	pv	-14.72354	-5.02814	-14.435228	0	0	0
	331	pv	-14.72354	-5.02814	-9.610719	0	0	0
	332	pv	-14.72354	-5.02814	-4.786208	0	0	0
	333	pv	-14.72354	-5.02814	0.038302	0	0	0
	334	pv	-14.72354	-5.02814	4.862812	0	0	0
	335	pv	-14.72354	-5.02814	9.687322	0	0	0
	336	pv	-14.72354	3.454422	-14.435228	0	0	0
	337	pv	-14.72354	3.454422	-9.610719	0	0	0
	338	pv	-14.72354	3.454422	-4.786208	0	0	0
	339	pv	-14.72354	3.454422	0.038302	0	0	0
	340	pv	-14.72354	3.454422	4.862812	0	0	0
	341	pv	-14.72354	3.454422	9.687322	0	0	0
	342	pv	-3.941653	-13.510702	-14.435228	0	0	0
	343	pv	-3.941653	-13.510702	-9.610719	0	0	0
	344	pv	-3.941653	-13.510702	-4.786208	0	0	0
	345	pv	-3.941653	-13.510702	0.038302	0	0	0
	346	pv	-3.941653	-13.510702	4.862812	0	0	0
	347	pv	-3.941653	-13.510702	9.687322	0	0	0
	348	pv	-3.941653	-5.02814	-14.435228	0	0	0
	349	pv	-3.941653	-5.02814	-9.610719	0	0	0
	350	pv	-3.941653	-5.02814	-4.786208	0	0	0
	351	pv	-3.941653	-5.02814	0.038302	0	0	0
	352	pv	-3.941653	-5.02814	4.862812	0	0	0
	353	pv	-3.941653	-5.02814	9.687322	0	0	0
	354	pv	-3.941653	3.454422	-14.435228	0	0	0
	355	pv	-3.941653	3.454422	-9.610719	0	0	0
	356	pv	-3.941653	3.454422	-4.786208	0	0	0
	357	pv	-3.941653	3.454422	0.038302	0	0	0
	358	pv	-3.941653	3.454422	4.862812	0	0	0
	359	pv	-3.941653	3.454422	9.687322	0	0	0
	360	pv	6.840234	-13.510702	-14.435228	0	0	0
	361	pv	6.840234	-13.510702	-9.610719	0	0	0
	362	pv	6.840234	-13.510702	-4.786208	0	0	0
	363	pv	6.840234	-13.510702	0.038302	0	0	0
	364	pv	6.840234	-13.510702	4.862812	0	0	0
	365	pv	6.840234	-13.510702	9.687322	0	0	0
	366	pv	6.840234	-5.02814	-14.435228	0	0	0
	367	pv	6.840234	-5.02814	-9.610719	0	0	0
	368	pv	6.840234	-5.02814	-4.786208	0	0	0
	369	pv	6.840234	-5.02814	0.038302	0	0	0
	370	pv	6.840234	-5.02814	4.862812	0	0	0
	371	pv	6.840234	-5.02814	9.687322	0	0	0
	372	pv	6.840234	3.454422	-14.435228	0	0	0
	373	pv	6.840234	3.454422	-9.610719	0	0	0
	374	pv	6.840234	3.454422	-4.786208	0	0	0
	375	pv	6.840234	3.454422	0.038302	0	0	0
	376	pv	6.840234	3.454422	4.862812	0	0	0
	377	pv	6.840234	3.454422	9.687322	0	0	0
	378	pv	-17.622122	-11.936983	-9.687321	0	0	0
	379	pv	-17.622122	-11.936983	-4.862812	0	0	0
	380	pv	-17.622122	-11.936983	-0.038301	0	0	0
	381	pv	-17.622122	-11.936983	4.786209	0	0	0
	382	pv	-17.622122	-11.936983	9.610719	0	0	0
	383	pv	-17.622122	-11.936983	14.435228	0	0	0
	384	pv	-17.622122	-3.454422	-9.687321	0	0	0
	385	pv	-17.622122	-3.454422	-4.862812	0	0	0
	386	pv	-17.622122	-3.454422	-0.038301	0	0	0
	387	pv	-17.622122	-3.454422	4.786209	0	0	0
	388	pv	-17.622122	-3.454422	9.610719	0	0	0
	389	pv	-17.622122	-3.454422	14.435228	0	0	0
	390	pv	-17.622122	5.028141	-9.687321	0	0	0
	391	pv	-17.622122	5.028141	-4.862812	0	0	0
	392	pv	-17.622122	5.028141	-0.038301	0	0	0
	393	pv	-17.622122	5.028141	4.786209	0	0	0
	394	pv	-17.622122	5.028141	9.610719	0	0	0
	395	pv	-17.622122	5.028141	14.435228	0	0	0
	396	pv	-6.840234	-11.936983	-9.687321	0	0	0
	397	pv	-6.840234	-11.936983	-4.862812	0	0	0
	398	pv	-6.840234	-11.936983	-0.038301	0	0	0
	399	pv	-6.840234	-11.936983	4.786209	0	0	0
	400	pv	-6.840234	-11.936983	9.610719	0	0	0
	401	pv	-6.840234	-11.936983	14.435228	0	0	0
	402	pv	-6.840234	-3.454422	-9.687321	0	0	0
	403	pv	-6.840234	-3.454422	-4.862812	0	0	0
	404	pv	-6.840234	-3.454422	-0.038301	0	0	0
	405	pv	-6.840234	-3.454422	4.786209	0	0	0
	406	pv	-6.840234	-3.454422	9.610719	0	0	0
	407	pv	-6.840234	-3.454422	14.435228	0	0	0
	408	pv	-6.840234	5.028141	-9.687321	0	0	0
	409	pv	-6.840234	5.028141	-4.862812	0	0	0
	410	pv	-6.840234	5.028141	-0.038301	0	0	0
	411	pv	-6.840234	5.028141	4.786209	0	0	0
	412	pv	-6.840234	5.028141	9.610719	0	0	0
	413	pv	-6.840234	5.028141	14.435228	0	0	0
	414	pv	3.941653	-11.936983	-9.687321	0	0	0
	415	pv	3.941653	-11.936983	-4.862812	0	0	0
	416	pv	3.941653	-11.936983	-0.038301	0	0	0
	417	pv	3.941653	-11.936983	4.786209	0	0	0
	418	pv	3.941653	-11.936983	9.610719	0	0	0
	419	pv	3.941653	-11.936983	14.435228	0	0	0
	420	pv	3.941653	-3.454422	-9.687321	0	0	0
	421	pv	3.941653	-3.454422	-4.862812	0	0	0
	422	pv	3.941653	-3.454422	-0.038301	0	0	0
	423	pv	3.941653	-3.454422	4.786209	0	0	0
	424	pv	3.941653	-3.454422	9.610719	0	0	0
	425	pv	3.941653	-3.454422	14.435228	0	0	0
	426	pv	3.941653	5.028141	-9.687321	0	0	0
	427	pv	3.941653	5.028141	-4.862812	0	0	0
	428	pv	3.941653	5.028141	-0.038301	0	0	0
	429	pv	3.941653	5.028141	4.786209	0	0	0
	430	pv	3.941653	5.028141	9.610719	0	0	0
	431	pv	3.941653	5.028141	14.435228	0	0	0
	432	pv	-20.454296	-10.603203	-9.745934	0	0	0
	433	pv	-20.454296	-10.603203	-4.921425	0	0	0
	434	pv	-20.454296	-10.603203	-0.096915	0	0	0
	435	pv	-20.454296	-10.603203	4.727595	0	0	0
	436	pv	-20.454296	-10.603203	9.552105	0	0	0
	437	pv	-20.454296	-10.603203	14.376616	0	0	0
	438	pv	-20.454296	-2.120641	-9.745934	0	0	0
	439	pv	-20.454296	-2.120641	-4.921425	0	0	0
	440	pv	-20.454296	-2.120641	-0.096915	0	0	0
	441	pv	-20.454296	-2.120641	4.727595	0	0	0
	442	pv	-20.454296	-2.120641	9.552105	0	0	0
	443	pv	-20.454296	-2.120641	14.376616	0	0	0
	444	pv	-20.454296	6.361921	-9.745934	0	0	0
	445	pv	-20.454296	6.361921	-4.921425	0	0	0
	446	pv	-20.454296	6.361921	-0.096915	0	0	0
	447	pv	-20.454296	6.361921	4.727595	0	0	0
	448	pv	-20.454296	6.361921	9.552105	0	0	0
	449	pv	-20.454296	6.361921	14.376616	0	0	0
	450	pv	-9.672409	-10.603203	-9.745934	0	0	0
	451	pv	-9.672409	-10.603203	-4.921425	0	0	0
	452	pv	-9.672409	-10.603203	-0.096915	0	0	0
	453	pv	-9.672409	-10.603203	4.727595	0	0	0
	454	pv	-9.672409	-10.603203	9.552105	0	0	0
	455	pv	-9.672409	-10.603203	14.376616	0	0	0
	456	pv	-9.672409	-2.120641	-9.745934	0	0	0
	457	pv	-9.672409	-2.120641	-4.921425	0	0	0
	458	pv	-9.672409	-2.120641	-0.096915	0	0	0
	459	pv	-9.672409	-2.120641	4.727595	0	0	0
	460	pv	-9.672409	-2.120641	9.552105	0	0	0
	461	pv	-9.672409	-2.120641	14.376616	0	0	0
	462	pv	-9.672409	6.361921	-9.745934	0	0	0
	463	pv	-9.672409	6.361921	-4.921425	0	0	0
	464	pv	-9.672409	6.361921	-0.096915	0	0	0
	465	pv	-9.672409	6.361921	4.727595	0	0	0
	466	pv	-9.672409	6.361921	9.552105	0	0	0
	467	pv	-9.672409	6.361921	14.376616	0	0	0
	468	pv	1.109478	-10.603203	-9.745934	0	0	0
	469	pv	1.109478	-10.603203	-4.921425	0	0	0
	470	pv	1.109478	-10.603203	-0.096915	0	0	0
	471	pv	1.109478	-10.603203	4.727595	0	0	0
	472	pv	1.109478	-10.603203	9.552105	0	0	0
	473	pv	1.109478	-10.603203	14.376616	0	0	0
	474	pv	1.109478	-2.120641	-9.745934	0	0	0
	475	pv	1.109478	-2.120641	-4.921425	0	0	0
	476	pv	1.109478	-2.120641	-0.096915	0	0	0
	477	pv	1.109478	-2.120641	4.727595	0	0	0
	478	pv	1.109478	-2.120641	9.552105	0	0	0
	479	pv	1.109478	-2.120641	14.376616	0	0	0
	480	pv	1.109478	6.361921	-9.745934	0	0	0
	481	pv	1.109478	6.361921	-4.921425	0	0	0
	482	pv	1.109478	6.361921	-0.096915	0	0	0
	483	pv	1.109478	6.361921	4.727595	0	0	0
	484	pv	1.109478	6.361921	9.552105	0	0	0
	485	pv	1.109478	6.361921	14.376616	0	0	0
	486	pv	-11.891365	-14.844483	-14.376615	0	0	0
	487	pv	-11.891365	-14.844483	-9.552105	0	0	0
	488	pv	-11.891365	-14.844483	-4.727595	0	0	0
	489	pv	-11.891365	-14.844483	0.096915	0	0	0
	490	pv	-11.891365	-14.844483	4.921425	0	0	0
	491	pv	-11.891365	-14.844483	9.745935	0	0	0
	492	pv	-11.891365	-6.361921	-14.376615	0	0	0
	493	pv	-11.891365	-6.361921	-9.552105	0	0	0
	494	pv	-11.891365	-6.361921	-4.727595	0	0	0
	495	pv	-11.891365	-6.361921	0.096915	0	0	0
	496	pv	-11.891365	-6.361921	4.921425	0	0	0
	497	pv	-11.891365	-6.361921	9.745935	0	0	0
	498	pv	-11.891365	2.120641	-14.376615	0	0	0
	499	pv	-11.891365	2.120641	-9.552105	0	0	0
	500	pv	-11.891365	2.120641	-4.727595	0	0	0
	501	pv	-11.891365	2.120641	0.096915	0	0	0
	502	pv	-11.891365	2.120641	4.921425	0	0	0
	503	pv	-11.891365	2.120641	9.745935	0	0	0
	504	pv	-1.109478	-14.844483	-14.376615	0	0	0
	505	pv	-1.109478	-14.844483	-9.552105	0	0	0
	506	pv	-1.109478	-14.844483	-4.727595	0	0	0
	507	pv	-1.109478	-14.844483	0.096915	0	0	0
	508	pv	-1.109478	-14.844483	4.921425	0	0	0
	509	pv	-1.109478	-14.844483	9.745935	0	0	0
	510	pv	-1.109478	-6.361921	-14.376615	0	0	0
	511	pv	-1.109478	-6.361921	-9.552105	0	0	0
	512	pv	-1.109478	-6.361921	-4.727595	0	0	0
	513	pv	-1.109478	-6.361921	0.096915	0	0	0
	514	pv	-1.109478	-6.361921	4.921425	0	0	0
	515	pv	-1.109478	-6.361921	9.745935	0	0	0
	516	pv	-1.109478	2.120641	-14.376615	0	0	0
	517	pv	-1.109478	2.120641	-9.552105	0	0	0
	518	pv	-1.109478	2.120641	-4.727595	0	0	0
	519	pv	-1.109478	2.120641	0.096915	0	0	0
	520	pv	-1.109478	2.120641	4.921425	0	0	0
	521	pv	-1.109478	2.120641	9.745935	0	0	0
	522	pv	9.672409	-14.844483	-14.376615	0	0	0
	523	pv	9.672409	-14.844483	-9.552105	0	0	0
	524	pv	9.672409	-14.844483	-4.727595	0	0	0
	525	pv	9.672409	-14.844483	0.096915	0	0	0
	526	pv	9.672409	-14.844483	4.921425	0	0	0
	527	pv	9.672409	-14.844483	9.745935	0	0	0
	528	pv	9.672409	-6.361921	-14.376615	0	0	0
	529	pv	9.672409	-6.361921	-9.552105	0	0	0
	530	pv	9.672409	-6.361921	-4.727595	0	0	0
	531	pv	9.672409	-6.361921	0.096915	0	0	0
	532	pv	9.672409	-6.361921	4.921425	0	0	0
	533	pv	9.672409	-6.361921	9.745935	0	0	0
	534	pv	9.672409	2.120641	-14.376615	0	0	0
	535	pv	9.672409	2.120641	-9.552105	0	0	0
	536	pv	9.672409	2.120641	-4.727595	0	0	0
	537	pv	9.672409	2.120641	0.096915	0	0	0
	538	pv	9.672409	2.120641	4.921425	0	0	0
	539	pv	9.672409	2.120641	9.745935	0	0	0
	540	pv	-17.282309	-14.844483	-12.15819	0	0	0
	541	pv	-17.282309	-14.844483	-7.33368	0	0	0
	542	pv	-17.282309	-14.844483	-2.50917	0	0	0
	543	pv	-17.282309	-14.844483	2.315341	0	0	0
	544	pv	-17.282309	-14.844483	7.139851	0	0	0
	545	pv	-17.282309	-14.844483	11.964361	0	0	0
	546	pv	-17.282309	-6.361921	-12.15819	0	0	0
	547	pv	-17.282309	-6.361921	-7.33368	0	0	0
	548	pv	-17.282309	-6.361921	-2.50917	0	0	0
	549	pv	-17.282309	-6.361921	2.315341	0	0	0
	550	pv	-17.282309	-6.361921	7.139851	0	0	0
	551	pv	-17.282309	-6.361921	11.964361	0	0	0
	552	pv	-17.282309	2.120641	-12.15819	0	0	0
	553	pv	-17.282309	2.120641	-7.33368	0	0	0
	554	pv	-17.282309	2.120641	-2.50917	0	0	0
	555	pv	-17.282309	2.120641	2.315341	0	0	0
	556	pv	-17.282309	2.120641	7.139851	0	0	0
	557	pv	-17.282309	2.120641	11.964361	0	0	0
	558	pv	-6.500421	-14.844483	-12.15819	0	0	0
	559	pv	-6.500421	-14.844483	-7.33368	0	0	0
	560	pv	-6.500421	-14.844483	-2.50917	0	0	0
	561	pv	-6.500421	-14.844483	2.315341	0	0	0
	562	pv	-6.500421	-14.844483	7.139851	0	0	0
	563	pv	-6.500421	-14.844483	11.964361	0	0	0
	564	pv	-6.500421	-6.361921	-12.15819	0	0	0
	565	pv	-6.500421	-6.361921	-7.33368	0	0	0
	566	pv	-6.500421	-6.361921	-2.50917	0	0	0
	567	pv	-6.500421	-6.361921	2.315341	0	0	0
	568	pv	-6.500421	-6.361921	7.139851	0	0	0
	569	pv	-6.500421	-6.361921	11.964361	0	0	0
	570	pv	-6.500421	2.120641	-12.15819	0	0	0
	571	pv	-6.500421	2.120641	-7.33368	0	0	0
	572	pv	-6.500421	2.120641	-2.50917	0	0	0
	573	pv	-6.500421	2.120641	2.315341	0	0	0
	574	pv	-6.500421	2.120641	7.139851	0	0	0
	575	pv	-6.500421	2.120641	11.964361	0	0	0
	576	pv	4.281466	-14.844483	-12.15819	0	0	0
	577	pv	4.281466	-14.844483	-7.33368	0	0	0
	578	pv	4.281466	-14.844483	-2.50917	0	0	0
	579	pv	4.281466	-14.844483	2.315341	0	0	0
	580	pv	4.281466	-14.844483	7.139851	0	0	0
	581	pv	4.281466	-14.844483	11.964361	0	0	0
	582	pv	4.281466	-6.361921	-12.15819	0	0	0
	583	pv	4.281466	-6.361921	-7.33368	0	0	0
	584	pv	4.281466	-6.361921	-2.50917	0	0	0
	585	pv	4.281466	-6.361921	2.315341	0	0	0
	586	pv	4.281466	-6.361921	7.139851	0	0	0
	587	pv	4.281466	-6.361921	11.964361	0	0	0
	588	pv	4.281466	2.120641	-12.15819	0	0	0
	589	pv	4.281466	2.120641	-7.33368	0	0	0
	590	pv	4.281466	2.120641	-2.50917	0	0	0
	591	pv	4.281466	2.120641	2.315341	0	0	0
	592	pv	4.281466	2.120641	7.139851	0	0	0
	593	pv	4.281466	2.120641	11.964361	0	0	0
	594	pv	-15.063353	-10.603203	-11.96436	0	0	0
	595	pv	-15.063353	-10.603203	-7.139851	0	0	0
	596	pv	-15.063353	-10.603203	-2.31534	0	0	0
	597	pv	-15.063353	-10.603203	2.50917	0	0	0
	598	pv	-15.063353	-10.603203	7.33368	0	0	0
	599	pv	-15.063353	-10.603203	12.15819	0	0	0
	600	pv	-15.063353	-2.120641	-11.96436	0	0	0
	601	pv	-15.063353	-2.120641	-7.139851	0	0	0
	602	pv	-15.063353	-2.120641	-2.31534	0	0	0
	603	pv	-15.063353	-2.120641	2.50917	0	0	0
	604	pv	-15.063353	-2.120641	7.33368	0	0	0
	605	pv	-15.063353	-2.120641	12.15819	0	0	0
	606	pv	-15.063353	6.361921	-11.96436	0	0	0
	607	pv	-15.063353	6.361921	-7.139851	0	0	0
	608	pv	-15.063353	6.361921	-2.31534	0	0	0
	609	pv	-15.063353	6.361921	2.50917	0	0	0
	610	pv	-15.063353	6.361921	7.33368	0	0	0
	611	pv	-15.063353	6.361921	12.15819	0	0	0
	612	pv	-4.281466	-10.603203	-11.96436	0	0	0
	613	pv	-4.281466	-10.603203	-7.139851	0	0	0
	614	pv	-4.281466	-10.603203	-2.31534	0	0	0
	615	pv	-4.281466	-10.603203	2.50917	0	0	0
	616	pv	-4.281466	-10.603203	7.33368	0	0	0
	617	pv	-4.281466	-10.603203	12.15819	0	0	0
	618	pv	-4.281466	-2.120641	-11.96436	0	0	0
	619	pv	-4.281466	-2.120641	-7.139851	0	0	0
	620	pv	-4.281466	-2.120641	-2.31534	0	0	0
	621	pv	-4.281466	-2.120641	2.50917	0	0	0
	622	pv	-4.281466	-2.120641	7.33368	0	0	0
	623	pv	-4.281466	-2.120641	12.15819	0	0	0
	624	pv	-4.281466	6.361921	-11.96436	0	0	0
	625	pv	-4.281466	6.361921	-7.139851	0	0	0
	626	pv	-4.281466	6.361921	-2.31534	0	0	0
	627	pv	-4.281466	6.361921	2.50917	0	0	0
	628	pv	-4.281466	6.361921	7.33368	0	0	0
	629	pv	-4.281466	6.361921	12.15819	0	0	0
	630	pv	6.500421	-10.603203	-11.96436	0	0	0
	631	pv	6.500421	-10.603203	-7.139851	0	0	0
	632	pv	6.500421	-10.603203	-2.31534	0	0	0
	633	pv	6.500421	-10.603203	2.50917	0	0	0
	634	pv	6.500421	-10.603203	7.33368	0	0	0
	635	pv	6.500421	-10.603203	12.15819	0	0	0
	636	pv	6.500421	-2.120641	-11.96436	0	0	0
	637	pv	6.500421	-2.120641	-7.139851	0	0	0
	638	pv	6.500421	-2.120641	-2.31534	0	0	0
	639	pv	6.500421	-2.120641	2.50917	0	0	0
	640	pv	6.500421	-2.120641	7.33368	0	0	0
	641	pv	6.500421	-2.120641	12.15819	0	0	0
	642	pv	6.500421	6.361921	-11.96436	0	0	0
	643	pv	6.500421	6.361921	-7.139851	0	0	0
	644	pv	6.500421	6.361921	-2.31534	0	0	0
	645	pv	6.500421	6.361921	2.50917	0	0	0
	646	pv	6.500421	6.361921	7.33368	0	0	0
	647	pv	6.500421	6.361921	12.15819	0	0	0
	648	pv	-21.226624	-12.020673	-11.011837	0	0	0
	649	pv	-21.226624	-12.020673	-6.187328	0	0	0
	650	pv	-21.226624	-12.020673	-1.362818	0	0	0
	651	pv	-21.226624	-12.020673	3.461692	0	0	0
	652	pv	-21.226624	-12.020673	8.286202	0	0	0
	653	pv	-21.226624	-12.020673	13.110712	0	0	0
	654	pv	-21.226624	-3.538111	-11.011837	0	0	0
	655	pv	-21.226624	-3.538111	-6.187328	0	0	0
	656	pv	-21.226624	-3.538111	-1.362818	0	0	0
	657	pv	-21.226624	-3.538111	3.461692	0	0	0
	658	pv	-21.226624	-3.538111	8.286202	0	0	0
	659	pv	-21.226624	-3.538111	13.110712	0	0	0
	660	pv	-21.226624	4.944451	-11.011837	0	0	0
	661	pv	-21.226624	4.944451	-6.187328	0	0	0
	662	pv	-21.226624	4.944451	-1.362818	0	0	0
	663	pv	-21.226624	4.944451	3.461692	0	0	0
	664	pv	-21.226624	4.944451	8.286202	0	0	0
	665	pv	-21.226624	4.944451	13.110712	0	0	0
	666	pv	-10.444737	-12.020673	-11.011837	0	0	0
	667	pv	-10.444737	-12.020673	-6.187328	0	0	0