#ifndef _GB_INC_
#define _GB_INC_

molecule{
  name = "GB";
  
  atom[0]{
     type="GBPaper";
     position( 0.0, 0.0, 0.0 );
     orientation(0.0,0.0,0.0);
  }
}
molecule{
  name = "GBlinear";
  
  atom[0]{
     type="GBlinear";
     position( 0.0, 0.0, 0.0 );
     orientation(0.0,0.0,0.0);
  }
}
#endif
