molecule {
  name = "TEST";
  atom[0]{
    type = "TESTP";
    orientation (0.0, 0.0, 0.0);
    position (0.0, 0.0, 0.0);
  }
}
