<OpenMD version=2>
  <MetaData>

molecule{
  name = "Ag_FQ";

  atom[0]{
    type="Ag_FQ";
    position( 0.0, 0.0, 0.0 );
  }
}

molecule{
  name = "Au_FQ";

  atom[0]{
    type="Au_FQ";
    position( 0.0, 0.0, 0.0 );
  }
}


component{
  type = "Au_FQ";
  nMol = 343;
}
component{
  type = "Ag_FQ";
  nMol = 1029;
}


minimizer {
  useMinimizer = True;
  method = CG;
  maxIterations = 5000;
}


flucQ {
  propagator = "Langevin";
  targetTemp = 1;
  dragCoefficient = 0.1;
}

forceField = "DR-EAM";
outputFluctuatingCharges = true;
outputElectricField = true;
outputDensity = true;
dt = 0.1;
runTime = 1e4;
sampleTime =100;
statusTime = 10;

cutoffMethod = "shifted_force";
cutoffRadius = 14;
electrostaticScreeningMethod = "DAMPED";
statFileFormat = "TIME|TOTAL_ENERGY|POTENTIAL_ENERGY|KINETIC_ENERGY|TEMPERATURE|PRESSURE|VOLUME|CONSERVED_QUANTITY|SYSTEM_DIPOLE|ELECTRONIC_TEMPERATURE";
dampingAlpha = 0.14;
useSurfaceTerm = "false";
targetTemp = 100;
tauThermostat = 1000;
tauBarostat = 1e6;
uniformField = (0,0,0);
tempSet = "false";
useInitialTime = "false";
useInitialExtendedSystemState = "false";
  </MetaData>

  <Snapshot>
    <FrameData>
      Time: 0
      Hmat: {{ 28.59, 0.000000, 0.000000 }, { 0.000000, 28.59, 0.000000 }, { 0.000000, 0.000000, 28.59 }}
      Thermostat: 0.0, 0.0
      Barostat: {{ 0, 0, 0 }, { 0, 0, 0 }, { 0, 0, 0 }}
    </FrameData>
<StuntDoubles>
0	pv	-12.255900	-12.255900	-12.255900	0.000000	0.000000	0.000000
1	pv	-12.255900	-12.255900	-8.170600	0.000000	0.000000	0.000000
2	pv	-12.255900	-12.255900	-4.085300	0.000000	0.000000	0.000000
3	pv	-12.255900	-12.255900	0.000000	0.000000	0.000000	0.000000
4	pv	-12.255900	-12.255900	4.085300	0.000000	0.000000	0.000000
5	pv	-12.255900	-12.255900	8.170600	0.000000	0.000000	0.000000
6	pv	-12.255900	-12.255900	12.255900	0.000000	0.000000	0.000000
7	pv	-12.255900	-8.170600	-12.255900	0.000000	0.000000	0.000000
8	pv	-12.255900	-8.170600	-8.170600	0.000000	0.000000	0.000000
9	pv	-12.255900	-8.170600	-4.085300	0.000000	0.000000	0.000000
10	pv	-12.255900	-8.170600	0.000000	0.000000	0.000000	0.000000
11	pv	-12.255900	-8.170600	4.085300	0.000000	0.000000	0.000000
12	pv	-12.255900	-8.170600	8.170600	0.000000	0.000000	0.000000
13	pv	-12.255900	-8.170600	12.255900	0.000000	0.000000	0.000000
14	pv	-12.255900	-4.085300	-12.255900	0.000000	0.000000	0.000000
15	pv	-12.255900	-4.085300	-8.170600	0.000000	0.000000	0.000000
16	pv	-12.255900	-4.085300	-4.085300	0.000000	0.000000	0.000000
17	pv	-12.255900	-4.085300	0.000000	0.000000	0.000000	0.000000
18	pv	-12.255900	-4.085300	4.085300	0.000000	0.000000	0.000000
19	pv	-12.255900	-4.085300	8.170600	0.000000	0.000000	0.000000
20	pv	-12.255900	-4.085300	12.255900	0.000000	0.000000	0.000000
21	pv	-12.255900	0.000000	-12.255900	0.000000	0.000000	0.000000
22	pv	-12.255900	0.000000	-8.170600	0.000000	0.000000	0.000000
23	pv	-12.255900	0.000000	-4.085300	0.000000	0.000000	0.000000
24	pv	-12.255900	0.000000	0.000000	0.000000	0.000000	0.000000
25	pv	-12.255900	0.000000	4.085300	0.000000	0.000000	0.000000
26	pv	-12.255900	0.000000	8.170600	0.000000	0.000000	0.000000
27	pv	-12.255900	0.000000	12.255900	0.000000	0.000000	0.000000
28	pv	-12.255900	4.085300	-12.255900	0.000000	0.000000	0.000000
29	pv	-12.255900	4.085300	-8.170600	0.000000	0.000000	0.000000
30	pv	-12.255900	4.085300	-4.085300	0.000000	0.000000	0.000000
31	pv	-12.255900	4.085300	0.000000	0.000000	0.000000	0.000000
32	pv	-12.255900	4.085300	4.085300	0.000000	0.000000	0.000000
33	pv	-12.255900	4.085300	8.170600	0.000000	0.000000	0.000000
34	pv	-12.255900	4.085300	12.255900	0.000000	0.000000	0.000000
35	pv	-12.255900	8.170600	-12.255900	0.000000	0.000000	0.000000
36	pv	-12.255900	8.170600	-8.170600	0.000000	0.000000	0.000000
37	pv	-12.255900	8.170600	-4.085300	0.000000	0.000000	0.000000
38	pv	-12.255900	8.170600	0.000000	0.000000	0.000000	0.000000
39	pv	-12.255900	8.170600	4.085300	0.000000	0.000000	0.000000
40	pv	-12.255900	8.170600	8.170600	0.000000	0.000000	0.000000
41	pv	-12.255900	8.170600	12.255900	0.000000	0.000000	0.000000
42	pv	-12.255900	12.255900	-12.255900	0.000000	0.000000	0.000000
43	pv	-12.255900	12.255900	-8.170600	0.000000	0.000000	0.000000
44	pv	-12.255900	12.255900	-4.085300	0.000000	0.000000	0.000000
45	pv	-12.255900	12.255900	0.000000	0.000000	0.000000	0.000000
46	pv	-12.255900	12.255900	4.085300	0.000000	0.000000	0.000000
47	pv	-12.255900	12.255900	8.170600	0.000000	0.000000	0.000000
48	pv	-12.255900	12.255900	12.255900	0.000000	0.000000	0.000000
49	pv	-8.170600	-12.255900	-12.255900	0.000000	0.000000	0.000000
50	pv	-8.170600	-12.255900	-8.170600	0.000000	0.000000	0.000000
51	pv	-8.170600	-12.255900	-4.085300	0.000000	0.000000	0.000000
52	pv	-8.170600	-12.255900	0.000000	0.000000	0.000000	0.000000
53	pv	-8.170600	-12.255900	4.085300	0.000000	0.000000	0.000000
54	pv	-8.170600	-12.255900	8.170600	0.000000	0.000000	0.000000
55	pv	-8.170600	-12.255900	12.255900	0.000000	0.000000	0.000000
56	pv	-8.170600	-8.170600	-12.255900	0.000000	0.000000	0.000000
57	pv	-8.170600	-8.170600	-8.170600	0.000000	0.000000	0.000000
58	pv	-8.170600	-8.170600	-4.085300	0.000000	0.000000	0.000000
59	pv	-8.170600	-8.170600	0.000000	0.000000	0.000000	0.000000
60	pv	-8.170600	-8.170600	4.085300	0.000000	0.000000	0.000000
61	pv	-8.170600	-8.170600	8.170600	0.000000	0.000000	0.000000
62	pv	-8.170600	-8.170600	12.255900	0.000000	0.000000	0.000000
63	pv	-8.170600	-4.085300	-12.255900	0.000000	0.000000	0.000000
64	pv	-8.170600	-4.085300	-8.170600	0.000000	0.000000	0.000000
65	pv	-8.170600	-4.085300	-4.085300	0.000000	0.000000	0.000000
66	pv	-8.170600	-4.085300	0.000000	0.000000	0.000000	0.000000
67	pv	-8.170600	-4.085300	4.085300	0.000000	0.000000	0.000000
68	pv	-8.170600	-4.085300	8.170600	0.000000	0.000000	0.000000
69	pv	-8.170600	-4.085300	12.255900	0.000000	0.000000	0.000000
70	pv	-8.170600	0.000000	-12.255900	0.000000	0.000000	0.000000
71	pv	-8.170600	0.000000	-8.170600	0.000000	0.000000	0.000000
72	pv	-8.170600	0.000000	-4.085300	0.000000	0.000000	0.000000
73	pv	-8.170600	0.000000	0.000000	0.000000	0.000000	0.000000
74	pv	-8.170600	0.000000	4.085300	0.000000	0.000000	0.000000
75	pv	-8.170600	0.000000	8.170600	0.000000	0.000000	0.000000
76	pv	-8.170600	0.000000	12.255900	0.000000	0.000000	0.000000
77	pv	-8.170600	4.085300	-12.255900	0.000000	0.000000	0.000000
78	pv	-8.170600	4.085300	-8.170600	0.000000	0.000000	0.000000
79	pv	-8.170600	4.085300	-4.085300	0.000000	0.000000	0.000000
80	pv	-8.170600	4.085300	0.000000	0.000000	0.000000	0.000000
81	pv	-8.170600	4.085300	4.085300	0.000000	0.000000	0.000000
82	pv	-8.170600	4.085300	8.170600	0.000000	0.000000	0.000000
83	pv	-8.170600	4.085300	12.255900	0.000000	0.000000	0.000000
84	pv	-8.170600	8.170600	-12.255900	0.000000	0.000000	0.000000
85	pv	-8.170600	8.170600	-8.170600	0.000000	0.000000	0.000000
86	pv	-8.170600	8.170600	-4.085300	0.000000	0.000000	0.000000
87	pv	-8.170600	8.170600	0.000000	0.000000	0.000000	0.000000
88	pv	-8.170600	8.170600	4.085300	0.000000	0.000000	0.000000
89	pv	-8.170600	8.170600	8.170600	0.000000	0.000000	0.000000
90	pv	-8.170600	8.170600	12.255900	0.000000	0.000000	0.000000
91	pv	-8.170600	12.255900	-12.255900	0.000000	0.000000	0.000000
92	pv	-8.170600	12.255900	-8.170600	0.000000	0.000000	0.000000
93	pv	-8.170600	12.255900	-4.085300	0.000000	0.000000	0.000000
94	pv	-8.170600	12.255900	0.000000	0.000000	0.000000	0.000000
95	pv	-8.170600	12.255900	4.085300	0.000000	0.000000	0.000000
96	pv	-8.170600	12.255900	8.170600	0.000000	0.000000	0.000000
97	pv	-8.170600	12.255900	12.255900	0.000000	0.000000	0.000000
98	pv	-4.085300	-12.255900	-12.255900	0.000000	0.000000	0.000000
99	pv	-4.085300	-12.255900	-8.170600	0.000000	0.000000	0.000000
100	pv	-4.085300	-12.255900	-4.085300	0.000000	0.000000	0.000000
101	pv	-4.085300	-12.255900	0.000000	0.000000	0.000000	0.000000
102	pv	-4.085300	-12.255900	4.085300	0.000000	0.000000	0.000000
103	pv	-4.085300	-12.255900	8.170600	0.000000	0.000000	0.000000
104	pv	-4.085300	-12.255900	12.255900	0.000000	0.000000	0.000000
105	pv	-4.085300	-8.170600	-12.255900	0.000000	0.000000	0.000000
106	pv	-4.085300	-8.170600	-8.170600	0.000000	0.000000	0.000000
107	pv	-4.085300	-8.170600	-4.085300	0.000000	0.000000	0.000000
108	pv	-4.085300	-8.170600	0.000000	0.000000	0.000000	0.000000
109	pv	-4.085300	-8.170600	4.085300	0.000000	0.000000	0.000000
110	pv	-4.085300	-8.170600	8.170600	0.000000	0.000000	0.000000
111	pv	-4.085300	-8.170600	12.255900	0.000000	0.000000	0.000000
112	pv	-4.085300	-4.085300	-12.255900	0.000000	0.000000	0.000000
113	pv	-4.085300	-4.085300	-8.170600	0.000000	0.000000	0.000000
114	pv	-4.085300	-4.085300	-4.085300	0.000000	0.000000	0.000000
115	pv	-4.085300	-4.085300	0.000000	0.000000	0.000000	0.000000
116	pv	-4.085300	-4.085300	4.085300	0.000000	0.000000	0.000000
117	pv	-4.085300	-4.085300	8.170600	0.000000	0.000000	0.000000
118	pv	-4.085300	-4.085300	12.255900	0.000000	0.000000	0.000000
119	pv	-4.085300	0.000000	-12.255900	0.000000	0.000000	0.000000
120	pv	-4.085300	0.000000	-8.170600	0.000000	0.000000	0.000000
121	pv	-4.085300	0.000000	-4.085300	0.000000	0.000000	0.000000
122	pv	-4.085300	0.000000	0.000000	0.000000	0.000000	0.000000
123	pv	-4.085300	0.000000	4.085300	0.000000	0.000000	0.000000
124	pv	-4.085300	0.000000	8.170600	0.000000	0.000000	0.000000
125	pv	-4.085300	0.000000	12.255900	0.000000	0.000000	0.000000
126	pv	-4.085300	4.085300	-12.255900	0.000000	0.000000	0.000000
127	pv	-4.085300	4.085300	-8.170600	0.000000	0.000000	0.000000
128	pv	-4.085300	4.085300	-4.085300	0.000000	0.000000	0.000000
129	pv	-4.085300	4.085300	0.000000	0.000000	0.000000	0.000000
130	pv	-4.085300	4.085300	4.085300	0.000000	0.000000	0.000000
131	pv	-4.085300	4.085300	8.170600	0.000000	0.000000	0.000000
132	pv	-4.085300	4.085300	12.255900	0.000000	0.000000	0.000000
133	pv	-4.085300	8.170600	-12.255900	0.000000	0.000000	0.000000
134	pv	-4.085300	8.170600	-8.170600	0.000000	0.000000	0.000000
135	pv	-4.085300	8.170600	-4.085300	0.000000	0.000000	0.000000
136	pv	-4.085300	8.170600	0.000000	0.000000	0.000000	0.000000
137	pv	-4.085300	8.170600	4.085300	0.000000	0.000000	0.000000
138	pv	-4.085300	8.170600	8.170600	0.000000	0.000000	0.000000
139	pv	-4.085300	8.170600	12.255900	0.000000	0.000000	0.000000
140	pv	-4.085300	12.255900	-12.255900	0.000000	0.000000	0.000000
141	pv	-4.085300	12.255900	-8.170600	0.000000	0.000000	0.000000
142	pv	-4.085300	12.255900	-4.085300	0.000000	0.000000	0.000000
143	pv	-4.085300	12.255900	0.000000	0.000000	0.000000	0.000000
144	pv	-4.085300	12.255900	4.085300	0.000000	0.000000	0.000000
145	pv	-4.085300	12.255900	8.170600	0.000000	0.000000	0.000000
146	pv	-4.085300	12.255900	12.255900	0.000000	0.000000	0.000000
147	pv	0.000000	-12.255900	-12.255900	0.000000	0.000000	0.000000
148	pv	0.000000	-12.255900	-8.170600	0.000000	0.000000	0.000000
149	pv	0.000000	-12.255900	-4.085300	0.000000	0.000000	0.000000
150	pv	0.000000	-12.255900	0.000000	0.000000	0.000000	0.000000
151	pv	0.000000	-12.255900	4.085300	0.000000	0.000000	0.000000
152	pv	0.000000	-12.255900	8.170600	0.000000	0.000000	0.000000
153	pv	0.000000	-12.255900	12.255900	0.000000	0.000000	0.000000
154	pv	0.000000	-8.170600	-12.255900	0.000000	0.000000	0.000000
155	pv	0.000000	-8.170600	-8.170600	0.000000	0.000000	0.000000
156	pv	0.000000	-8.170600	-4.085300	0.000000	0.000000	0.000000
157	pv	0.000000	-8.170600	0.000000	0.000000	0.000000	0.000000
158	pv	0.000000	-8.170600	4.085300	0.000000	0.000000	0.000000
159	pv	0.000000	-8.170600	8.170600	0.000000	0.000000	0.000000
160	pv	0.000000	-8.170600	12.255900	0.000000	0.000000	0.000000
161	pv	0.000000	-4.085300	-12.255900	0.000000	0.000000	0.000000
162	pv	0.000000	-4.085300	-8.170600	0.000000	0.000000	0.000000
163	pv	0.000000	-4.085300	-4.085300	0.000000	0.000000	0.000000
164	pv	0.000000	-4.085300	0.000000	0.000000	0.000000	0.000000
165	pv	0.000000	-4.085300	4.085300	0.000000	0.000000	0.000000
166	pv	0.000000	-4.085300	8.170600	0.000000	0.000000	0.000000
167	pv	0.000000	-4.085300	12.255900	0.000000	0.000000	0.000000
168	pv	0.000000	0.000000	-12.255900	0.000000	0.000000	0.000000
169	pv	0.000000	0.000000	-8.170600	0.000000	0.000000	0.000000
170	pv	0.000000	0.000000	-4.085300	0.000000	0.000000	0.000000
171	pv	0.000000	0.000000	0.000000	0.000000	0.000000	0.000000
172	pv	0.000000	0.000000	4.085300	0.000000	0.000000	0.000000
173	pv	0.000000	0.000000	8.170600	0.000000	0.000000	0.000000
174	pv	0.000000	0.000000	12.255900	0.000000	0.000000	0.000000
175	pv	0.000000	4.085300	-12.255900	0.000000	0.000000	0.000000
176	pv	0.000000	4.085300	-8.170600	0.000000	0.000000	0.000000
177	pv	0.000000	4.085300	-4.085300	0.000000	0.000000	0.000000
178	pv	0.000000	4.085300	0.000000	0.000000	0.000000	0.000000
179	pv	0.000000	4.085300	4.085300	0.000000	0.000000	0.000000
180	pv	0.000000	4.085300	8.170600	0.000000	0.000000	0.000000
181	pv	0.000000	4.085300	12.255900	0.000000	0.000000	0.000000
182	pv	0.000000	8.170600	-12.255900	0.000000	0.000000	0.000000
183	pv	0.000000	8.170600	-8.170600	0.000000	0.000000	0.000000
184	pv	0.000000	8.170600	-4.085300	0.000000	0.000000	0.000000
185	pv	0.000000	8.170600	0.000000	0.000000	0.000000	0.000000
186	pv	0.000000	8.170600	4.085300	0.000000	0.000000	0.000000
187	pv	0.000000	8.170600	8.170600	0.000000	0.000000	0.000000
188	pv	0.000000	8.170600	12.255900	0.000000	0.000000	0.000000
189	pv	0.000000	12.255900	-12.255900	0.000000	0.000000	0.000000
190	pv	0.000000	12.255900	-8.170600	0.000000	0.000000	0.000000
191	pv	0.000000	12.255900	-4.085300	0.000000	0.000000	0.000000
192	pv	0.000000	12.255900	0.000000	0.000000	0.000000	0.000000
193	pv	0.000000	12.255900	4.085300	0.000000	0.000000	0.000000
194	pv	0.000000	12.255900	8.170600	0.000000	0.000000	0.000000
195	pv	0.000000	12.255900	12.255900	0.000000	0.000000	0.000000
196	pv	4.085300	-12.255900	-12.255900	0.000000	0.000000	0.000000
197	pv	4.085300	-12.255900	-8.170600	0.000000	0.000000	0.000000
198	pv	4.085300	-12.255900	-4.085300	0.000000	0.000000	0.000000
199	pv	4.085300	-12.255900	0.000000	0.000000	0.000000	0.000000
200	pv	4.085300	-12.255900	4.085300	0.000000	0.000000	0.000000
201	pv	4.085300	-12.255900	8.170600	0.000000	0.000000	0.000000
202	pv	4.085300	-12.255900	12.255900	0.000000	0.000000	0.000000
203	pv	4.085300	-8.170600	-12.255900	0.000000	0.000000	0.000000
204	pv	4.085300	-8.170600	-8.170600	0.000000	0.000000	0.000000
205	pv	4.085300	-8.170600	-4.085300	0.000000	0.000000	0.000000
206	pv	4.085300	-8.170600	0.000000	0.000000	0.000000	0.000000
207	pv	4.085300	-8.170600	4.085300	0.000000	0.000000	0.000000
208	pv	4.085300	-8.170600	8.170600	0.000000	0.000000	0.000000
209	pv	4.085300	-8.170600	12.255900	0.000000	0.000000	0.000000
210	pv	4.085300	-4.085300	-12.255900	0.000000	0.000000	0.000000
211	pv	4.085300	-4.085300	-8.170600	0.000000	0.000000	0.000000
212	pv	4.085300	-4.085300	-4.085300	0.000000	0.000000	0.000000
213	pv	4.085300	-4.085300	0.000000	0.000000	0.000000	0.000000
214	pv	4.085300	-4.085300	4.085300	0.000000	0.000000	0.000000
215	pv	4.085300	-4.085300	8.170600	0.000000	0.000000	0.000000
216	pv	4.085300	-4.085300	12.255900	0.000000	0.000000	0.000000
217	pv	4.085300	0.000000	-12.255900	0.000000	0.000000	0.000000
218	pv	4.085300	0.000000	-8.170600	0.000000	0.000000	0.000000
219	pv	4.085300	0.000000	-4.085300	0.000000	0.000000	0.000000
220	pv	4.085300	0.000000	0.000000	0.000000	0.000000	0.000000
221	pv	4.085300	0.000000	4.085300	0.000000	0.000000	0.000000
222	pv	4.085300	0.000000	8.170600	0.000000	0.000000	0.000000
223	pv	4.085300	0.000000	12.255900	0.000000	0.000000	0.000000
224	pv	4.085300	4.085300	-12.255900	0.000000	0.000000	0.000000
225	pv	4.085300	4.085300	-8.170600	0.000000	0.000000	0.000000
226	pv	4.085300	4.085300	-4.085300	0.000000	0.000000	0.000000
227	pv	4.085300	4.085300	0.000000	0.000000	0.000000	0.000000
228	pv	4.085300	4.085300	4.085300	0.000000	0.000000	0.000000
229	pv	4.085300	4.085300	8.170600	0.000000	0.000000	0.000000
230	pv	4.085300	4.085300	12.255900	0.000000	0.000000	0.000000
231	pv	4.085300	8.170600	-12.255900	0.000000	0.000000	0.000000
232	pv	4.085300	8.170600	-8.170600	0.000000	0.000000	0.000000
233	pv	4.085300	8.170600	-4.085300	0.000000	0.000000	0.000000
234	pv	4.085300	8.170600	0.000000	0.000000	0.000000	0.000000
235	pv	4.085300	8.170600	4.085300	0.000000	0.000000	0.000000
236	pv	4.085300	8.170600	8.170600	0.000000	0.000000	0.000000
237	pv	4.085300	8.170600	12.255900	0.000000	0.000000	0.000000
238	pv	4.085300	12.255900	-12.255900	0.000000	0.000000	0.000000
239	pv	4.085300	12.255900	-8.170600	0.000000	0.000000	0.000000
240	pv	4.085300	12.255900	-4.085300	0.000000	0.000000	0.000000
241	pv	4.085300	12.255900	0.000000	0.000000	0.000000	0.000000
242	pv	4.085300	12.255900	4.085300	0.000000	0.000000	0.000000
243	pv	4.085300	12.255900	8.170600	0.000000	0.000000	0.000000
244	pv	4.085300	12.255900	12.255900	0.000000	0.000000	0.000000
245	pv	8.170600	-12.255900	-12.255900	0.000000	0.000000	0.000000
246	pv	8.170600	-12.255900	-8.170600	0.000000	0.000000	0.000000
247	pv	8.170600	-12.255900	-4.085300	0.000000	0.000000	0.000000
248	pv	8.170600	-12.255900	0.000000	0.000000	0.000000	0.000000
249	pv	8.170600	-12.255900	4.085300	0.000000	0.000000	0.000000
250	pv	8.170600	-12.255900	8.170600	0.000000	0.000000	0.000000
251	pv	8.170600	-12.255900	12.255900	0.000000	0.000000	0.000000
252	pv	8.170600	-8.170600	-12.255900	0.000000	0.000000	0.000000
253	pv	8.170600	-8.170600	-8.170600	0.000000	0.000000	0.000000
254	pv	8.170600	-8.170600	-4.085300	0.000000	0.000000	0.000000
255	pv	8.170600	-8.170600	0.000000	0.000000	0.000000	0.000000
256	pv	8.170600	-8.170600	4.085300	0.000000	0.000000	0.000000
257	pv	8.170600	-8.170600	8.170600	0.000000	0.000000	0.000000
258	pv	8.170600	-8.170600	12.255900	0.000000	0.000000	0.000000
259	pv	8.170600	-4.085300	-12.255900	0.000000	0.000000	0.000000
260	pv	8.170600	-4.085300	-8.170600	0.000000	0.000000	0.000000
261	pv	8.170600	-4.085300	-4.085300	0.000000	0.000000	0.000000
262	pv	8.170600	-4.085300	0.000000	0.000000	0.000000	0.000000
263	pv	8.170600	-4.085300	4.085300	0.000000	0.000000	0.000000
264	pv	8.170600	-4.085300	8.170600	0.000000	0.000000	0.000000
265	pv	8.170600	-4.085300	12.255900	0.000000	0.000000	0.000000
266	pv	8.170600	0.000000	-12.255900	0.000000	0.000000	0.000000
267	pv	8.170600	0.000000	-8.170600	0.000000	0.000000	0.000000
268	pv	8.170600	0.000000	-4.085300	0.000000	0.000000	0.000000
269	pv	8.170600	0.000000	0.000000	0.000000	0.000000	0.000000
270	pv	8.170600	0.000000	4.085300	0.000000	0.000000	0.000000
271	pv	8.170600	0.000000	8.170600	0.000000	0.000000	0.000000
272	pv	8.170600	0.000000	12.255900	0.000000	0.000000	0.000000
273	pv	8.170600	4.085300	-12.255900	0.000000	0.000000	0.000000
274	pv	8.170600	4.085300	-8.170600	0.000000	0.000000	0.000000
275	pv	8.170600	4.085300	-4.085300	0.000000	0.000000	0.000000
276	pv	8.170600	4.085300	0.000000	0.000000	0.000000	0.000000
277	pv	8.170600	4.085300	4.085300	0.000000	0.000000	0.000000
278	pv	8.170600	4.085300	8.170600	0.000000	0.000000	0.000000
279	pv	8.170600	4.085300	12.255900	0.000000	0.000000	0.000000
280	pv	8.170600	8.170600	-12.255900	0.000000	0.000000	0.000000
281	pv	8.170600	8.170600	-8.170600	0.000000	0.000000	0.000000
282	pv	8.170600	8.170600	-4.085300	0.000000	0.000000	0.000000
283	pv	8.170600	8.170600	0.000000	0.000000	0.000000	0.000000
284	pv	8.170600	8.170600	4.085300	0.000000	0.000000	0.000000
285	pv	8.170600	8.170600	8.170600	0.000000	0.000000	0.000000
286	pv	8.170600	8.170600	12.255900	0.000000	0.000000	0.000000
287	pv	8.170600	12.255900	-12.255900	0.000000	0.000000	0.000000
288	pv	8.170600	12.255900	-8.170600	0.000000	0.000000	0.000000
289	pv	8.170600	12.255900	-4.085300	0.000000	0.000000	0.000000
290	pv	8.170600	12.255900	0.000000	0.000000	0.000000	0.000000
291	pv	8.170600	12.255900	4.085300	0.000000	0.000000	0.000000
292	pv	8.170600	12.255900	8.170600	0.000000	0.000000	0.000000
293	pv	8.170600	12.255900	12.255900	0.000000	0.000000	0.000000
294	pv	12.255900	-12.255900	-12.255900	0.000000	0.000000	0.000000
295	pv	12.255900	-12.255900	-8.170600	0.000000	0.000000	0.000000
296	pv	12.255900	-12.255900	-4.085300	0.000000	0.000000	0.000000
297	pv	12.255900	-12.255900	0.000000	0.000000	0.000000	0.000000
298	pv	12.255900	-12.255900	4.085300	0.000000	0.000000	0.000000
299	pv	12.255900	-12.255900	8.170600	0.000000	0.000000	0.000000
300	pv	12.255900	-12.255900	12.255900	0.000000	0.000000	0.000000
301	pv	12.255900	-8.170600	-12.255900	0.000000	0.000000	0.000000
302	pv	12.255900	-8.170600	-8.170600	0.000000	0.000000	0.000000
303	pv	12.255900	-8.170600	-4.085300	0.000000	0.000000	0.000000
304	pv	12.255900	-8.170600	0.000000	0.000000	0.000000	0.000000
305	pv	12.255900	-8.170600	4.085300	0.000000	0.000000	0.000000
306	pv	12.255900	-8.170600	8.170600	0.000000	0.000000	0.000000
307	pv	12.255900	-8.170600	12.255900	0.000000	0.000000	0.000000
308	pv	12.255900	-4.085300	-12.255900	0.000000	0.000000	0.000000
309	pv	12.255900	-4.085300	-8.170600	0.000000	0.000000	0.000000
310	pv	12.255900	-4.085300	-4.085300	0.000000	0.000000	0.000000
311	pv	12.255900	-4.085300	0.000000	0.000000	0.000000	0.000000
312	pv	12.255900	-4.085300	4.085300	0.000000	0.000000	0.000000
313	pv	12.255900	-4.085300	8.170600	0.000000	0.000000	0.000000
314	pv	12.255900	-4.085300	12.255900	0.000000	0.000000	0.000000
315	pv	12.255900	0.000000	-12.255900	0.000000	0.000000	0.000000
316	pv	12.255900	0.000000	-8.170600	0.000000	0.000000	0.000000
317	pv	12.255900	0.000000	-4.085300	0.000000	0.000000	0.000000
318	pv	12.255900	0.000000	0.000000	0.000000	0.000000	0.000000
319	pv	12.255900	0.000000	4.085300	0.000000	0.000000	0.000000
320	pv	12.255900	0.000000	8.170600	0.000000	0.000000	0.000000
321	pv	12.255900	0.000000	12.255900	0.000000	0.000000	0.000000
322	pv	12.255900	4.085300	-12.255900	0.000000	0.000000	0.000000
323	pv	12.255900	4.085300	-8.170600	0.000000	0.000000	0.000000
324	pv	12.255900	4.085300	-4.085300	0.000000	0.000000	0.000000
325	pv	12.255900	4.085300	0.000000	0.000000	0.000000	0.000000
326	pv	12.255900	4.085300	4.085300	0.000000	0.000000	0.000000
327	pv	12.255900	4.085300	8.170600	0.000000	0.000000	0.000000
328	pv	12.255900	4.085300	12.255900	0.000000	0.000000	0.000000
329	pv	12.255900	8.170600	-12.255900	0.000000	0.000000	0.000000
330	pv	12.255900	8.170600	-8.170600	0.000000	0.000000	0.000000
331	pv	12.255900	8.170600	-4.085300	0.000000	0.000000	0.000000
332	pv	12.255900	8.170600	0.000000	0.000000	0.000000	0.000000
333	pv	12.255900	8.170600	4.085300	0.000000	0.000000	0.000000
334	pv	12.255900	8.170600	8.170600	0.000000	0.000000	0.000000
335	pv	12.255900	8.170600	12.255900	0.000000	0.000000	0.000000
336	pv	12.255900	12.255900	-12.255900	0.000000	0.000000	0.000000
337	pv	12.255900	12.255900	-8.170600	0.000000	0.000000	0.000000
338	pv	12.255900	12.255900	-4.085300	0.000000	0.000000	0.000000
339	pv	12.255900	12.255900	0.000000	0.000000	0.000000	0.000000
340	pv	12.255900	12.255900	4.085300	0.000000	0.000000	0.000000
341	pv	12.255900	12.255900	8.170600	0.000000	0.000000	0.000000
342	pv	12.255900	12.255900	12.255900	0.000000	0.000000	0.000000
343	pv	-10.213250	-10.213250	-12.255900	0.000000	0.000000	0.000000
344	pv	-12.255900	-10.213250	-10.213250	0.000000	0.000000	0.000000
345	pv	-10.213250	-12.255900	-10.213250	0.000000	0.000000	0.000000
346	pv	-10.213250	-10.213250	-8.170600	0.000000	0.000000	0.000000
347	pv	-12.255900	-10.213250	-6.127950	0.000000	0.000000	0.000000
348	pv	-10.213250	-12.255900	-6.127950	0.000000	0.000000	0.000000
349	pv	-10.213250	-10.213250	-4.085300	0.000000	0.000000	0.000000
350	pv	-12.255900	-10.213250	-2.042650	0.000000	0.000000	0.000000
351	pv	-10.213250	-12.255900	-2.042650	0.000000	0.000000	0.000000
352	pv	-10.213250	-10.213250	0.000000	0.000000	0.000000	0.000000
353	pv	-12.255900	-10.213250	2.042650	0.000000	0.000000	0.000000
354	pv	-10.213250	-12.255900	2.042650	0.000000	0.000000	0.000000
355	pv	-10.213250	-10.213250	4.085300	0.000000	0.000000	0.000000
356	pv	-12.255900	-10.213250	6.127950	0.000000	0.000000	0.000000
357	pv	-10.213250	-12.255900	6.127950	0.000000	0.000000	0.000000
358	pv	-10.213250	-10.213250	8.170600	0.000000	0.000000	0.000000
359	pv	-12.255900	-10.213250	10.213250	0.000000	0.000000	0.000000
360	pv	-10.213250	-12.255900	10.213250	0.000000	0.000000	0.000000
361	pv	-10.213250	-10.213250	12.255900	0.000000	0.000000	0.000000
362	pv	-12.255900	-10.213250	14.298550	0.000000	0.000000	0.000000
363	pv	-10.213250	-12.255900	14.298550	0.000000	0.000000	0.000000
364	pv	-10.213250	-6.127950	-12.255900	0.000000	0.000000	0.000000
365	pv	-12.255900	-6.127950	-10.213250	0.000000	0.000000	0.000000
366	pv	-10.213250	-8.170600	-10.213250	0.000000	0.000000	0.000000
367	pv	-10.213250	-6.127950	-8.170600	0.000000	0.000000	0.000000
368	pv	-12.255900	-6.127950	-6.127950	0.000000	0.000000	0.000000
369	pv	-10.213250	-8.170600	-6.127950	0.000000	0.000000	0.000000
370	pv	-10.213250	-6.127950	-4.085300	0.000000	0.000000	0.000000
371	pv	-12.255900	-6.127950	-2.042650	0.000000	0.000000	0.000000
372	pv	-10.213250	-8.170600	-2.042650	0.000000	0.000000	0.000000
373	pv	-10.213250	-6.127950	0.000000	0.000000	0.000000	0.000000
374	pv	-12.255900	-6.127950	2.042650	0.000000	0.000000	0.000000
375	pv	-10.213250	-8.170600	2.042650	0.000000	0.000000	0.000000
376	pv	-10.213250	-6.127950	4.085300	0.000000	0.000000	0.000000
377	pv	-12.255900	-6.127950	6.127950	0.000000	0.000000	0.000000
378	pv	-10.213250	-8.170600	6.127950	0.000000	0.000000	0.000000
379	pv	-10.213250	-6.127950	8.170600	0.000000	0.000000	0.000000
380	pv	-12.255900	-6.127950	10.213250	0.000000	0.000000	0.000000
381	pv	-10.213250	-8.170600	10.213250	0.000000	0.000000	0.000000
382	pv	-10.213250	-6.127950	12.255900	0.000000	0.000000	0.000000
383	pv	-12.255900	-6.127950	14.298550	0.000000	0.000000	0.000000
384	pv	-10.213250	-8.170600	14.298550	0.000000	0.000000	0.000000
385	pv	-10.213250	-2.042650	-12.255900	0.000000	0.000000	0.000000
386	pv	-12.255900	-2.042650	-10.213250	0.000000	0.000000	0.000000
387	pv	-10.213250	-4.085300	-10.213250	0.000000	0.000000	0.000000
388	pv	-10.213250	-2.042650	-8.170600	0.000000	0.000000	0.000000
389	pv	-12.255900	-2.042650	-6.127950	0.000000	0.000000	0.000000
390	pv	-10.213250	-4.085300	-6.127950	0.000000	0.000000	0.000000
391	pv	-10.213250	-2.042650	-4.085300	0.000000	0.000000	0.000000
392	pv	-12.255900	-2.042650	-2.042650	0.000000	0.000000	0.000000
393	pv	-10.213250	-4.085300	-2.042650	0.000000	0.000000	0.000000
394	pv	-10.213250	-2.042650	0.000000	0.000000	0.000000	0.000000
395	pv	-12.255900	-2.042650	2.042650	0.000000	0.000000	0.000000
396	pv	-10.213250	-4.085300	2.042650	0.000000	0.000000	0.000000
397	pv	-10.213250	-2.042650	4.085300	0.000000	0.000000	0.000000
398	pv	-12.255900	-2.042650	6.127950	0.000000	0.000000	0.000000
399	pv	-10.213250	-4.085300	6.127950	0.000000	0.000000	0.000000
400	pv	-10.213250	-2.042650	8.170600	0.000000	0.000000	0.000000
401	pv	-12.255900	-2.042650	10.213250	0.000000	0.000000	0.000000
402	pv	-10.213250	-4.085300	10.213250	0.000000	0.000000	0.000000
403	pv	-10.213250	-2.042650	12.255900	0.000000	0.000000	0.000000
404	pv	-12.255900	-2.042650	14.298550	0.000000	0.000000	0.000000
405	pv	-10.213250	-4.085300	14.298550	0.000000	0.000000	0.000000
406	pv	-10.213250	2.042650	-12.255900	0.000000	0.000000	0.000000
407	pv	-12.255900	2.042650	-10.213250	0.000000	0.000000	0.000000
408	pv	-10.213250	0.000000	-10.213250	0.000000	0.000000	0.000000
409	pv	-10.213250	2.042650	-8.170600	0.000000	0.000000	0.000000
410	pv	-12.255900	2.042650	-6.127950	0.000000	0.000000	0.000000
411	pv	-10.213250	0.000000	-6.127950	0.000000	0.000000	0.000000
412	pv	-10.213250	2.042650	-4.085300	0.000000	0.000000	0.000000
413	pv	-12.255900	2.042650	-2.042650	0.000000	0.000000	0.000000
414	pv	-10.213250	0.000000	-2.042650	0.000000	0.000000	0.000000
415	pv	-10.213250	2.042650	0.000000	0.000000	0.000000	0.000000
416	pv	-12.255900	2.042650	2.042650	0.000000	0.000000	0.000000
417	pv	-10.213250	0.000000	2.042650	0.000000	0.000000	0.000000
418	pv	-10.213250	2.042650	4.085300	0.000000	0.000000	0.000000
419	pv	-12.255900	2.042650	6.127950	0.000000	0.000000	0.000000
420	pv	-10.213250	0.000000	6.127950	0.000000	0.000000	0.000000
421	pv	-10.213250	2.042650	8.170600	0.000000	0.000000	0.000000
422	pv	-12.255900	2.042650	10.213250	0.000000	0.000000	0.000000
423	pv	-10.213250	0.000000	10.213250	0.000000	0.000000	0.000000
424	pv	-10.213250	2.042650	12.255900	0.000000	0.000000	0.000000
425	pv	-12.255900	2.042650	14.298550	0.000000	0.000000	0.000000
426	pv	-10.213250	0.000000	14.298550	0.000000	0.000000	0.000000
427	pv	-10.213250	6.127950	-12.255900	0.000000	0.000000	0.000000
428	pv	-12.255900	6.127950	-10.213250	0.000000	0.000000	0.000000
429	pv	-10.213250	4.085300	-10.213250	0.000000	0.000000	0.000000
430	pv	-10.213250	6.127950	-8.170600	0.000000	0.000000	0.000000
431	pv	-12.255900	6.127950	-6.127950	0.000000	0.000000	0.000000
432	pv	-10.213250	4.085300	-6.127950	0.000000	0.000000	0.000000
433	pv	-10.213250	6.127950	-4.085300	0.000000	0.000000	0.000000
434	pv	-12.255900	6.127950	-2.042650	0.000000	0.000000	0.000000
435	pv	-10.213250	4.085300	-2.042650	0.000000	0.000000	0.000000
436	pv	-10.213250	6.127950	0.000000	0.000000	0.000000	0.000000
437	pv	-12.255900	6.127950	2.042650	0.000000	0.000000	0.000000
438	pv	-10.213250	4.085300	2.042650	0.000000	0.000000	0.000000
439	pv	-10.213250	6.127950	4.085300	0.000000	0.000000	0.000000
440	pv	-12.255900	6.127950	6.127950	0.000000	0.000000	0.000000
441	pv	-10.213250	4.085300	6.127950	0.000000	0.000000	0.000000
442	pv	-10.213250	6.127950	8.170600	0.000000	0.000000	0.000000
443	pv	-12.255900	6.127950	10.213250	0.000000	0.000000	0.000000
444	pv	-10.213250	4.085300	10.213250	0.000000	0.000000	0.000000
445	pv	-10.213250	6.127950	12.255900	0.000000	0.000000	0.000000
446	pv	-12.255900	6.127950	14.298550	0.000000	0.000000	0.000000
447	pv	-10.213250	4.085300	14.298550	0.000000	0.000000	0.000000
448	pv	-10.213250	10.213250	-12.255900	0.000000	0.000000	0.000000
449	pv	-12.255900	10.213250	-10.213250	0.000000	0.000000	0.000000
450	pv	-10.213250	8.170600	-10.213250	0.000000	0.000000	0.000000
451	pv	-10.213250	10.213250	-8.170600	0.000000	0.000000	0.000000