<OpenMD version=2>
  <MetaData>

molecule{
  name = "Pt_FQ";

  atom[0]{
    type="Pt_FQ";
    position( 0.0, 0.0, 0.0 );
  }
}

molecule{
  name = "Ni_FQ";

  atom[0]{
    type="Ni_FQ";
    position( 0.0, 0.0, 0.0 );
  }
}


component{
  type = "Ni_FQ";
  nMol =        686;
}
component{
  type = "Pt_FQ";
  nMol =        686;
}


minimizer {
  useMinimizer = True;
  method = CG;
  maxIterations = 5000;
}


flucQ {
  propagator = "Langevin";
  targetTemp = 1;
  dragCoefficient = 0.1;
}

forceField = "DR-EAM";
outputFluctuatingCharges = true;
outputElectricField = true;
outputDensity = true;
//ensemble = NVE;
dt = 0.1;
runTime = 1e4;
sampleTime =100;
statusTime = 10;

cutoffMethod = "shifted_force";
cutoffRadius = 8;
electrostaticScreeningMethod = "DAMPED";
statFileFormat = "TIME|TOTAL_ENERGY|POTENTIAL_ENERGY|KINETIC_ENERGY|TEMPERATURE|PRESSURE|VOLUME|CONSERVED_QUANTITY|SYSTEM_DIPOLE|ELECTRONIC_TEMPERATURE";
dampingAlpha = 0.14;
useSurfaceTerm = "false";
targetTemp = 100;
tauThermostat = 1000;
tauBarostat = 1e6;
uniformField = (0,0,0);
tempSet = "false";
useInitialTime = "false";
useInitialExtendedSystemState = "false";
  </MetaData>
  <Snapshot>
    <FrameData>
      Time: 0
      Hmat: {{ 27.4694, 0, 0 }, { 0, 27.4694, 0 }, { 0, 0, 27.4694 }}
      Thermostat: 0.0, 0.0
      Barostat: {{ 0, 0, 0 }, { 0, 0, 0 }, { 0, 0, 0 }}
    </FrameData>
  <StuntDoubles>
         0      pv       -11.77552359       -11.77552359       -11.77552359  0.000000e+00  0.000000e+00  0.000000e+00
         1      pv       -11.77552359       -9.812936329       -9.812936329  0.000000e+00  0.000000e+00  0.000000e+00
         2      pv       -11.77552359       -11.77552359       -7.850349061  0.000000e+00  0.000000e+00  0.000000e+00
         3      pv       -11.77552359       -9.812936329       -5.887761796  0.000000e+00  0.000000e+00  0.000000e+00
         4      pv       -11.77552359       -11.77552359       -3.925174531  0.000000e+00  0.000000e+00  0.000000e+00
         5      pv       -11.77552359       -9.812936329       -1.962587265  0.000000e+00  0.000000e+00  0.000000e+00
         6      pv       -11.77552359       -11.77552359                  0  0.000000e+00  0.000000e+00  0.000000e+00
         7      pv       -11.77552359       -9.812936329        1.962587265  0.000000e+00  0.000000e+00  0.000000e+00
         8      pv       -11.77552359       -11.77552359        3.925174531  0.000000e+00  0.000000e+00  0.000000e+00
         9      pv       -11.77552359       -9.812936329        5.887761796  0.000000e+00  0.000000e+00  0.000000e+00
        10      pv       -11.77552359       -11.77552359        7.850349061  0.000000e+00  0.000000e+00  0.000000e+00
        11      pv       -11.77552359       -9.812936329        9.812936329  0.000000e+00  0.000000e+00  0.000000e+00
        12      pv       -11.77552359       -11.77552359        11.77552359  0.000000e+00  0.000000e+00  0.000000e+00
        13      pv       -11.77552359       -9.812936329        13.73811086  0.000000e+00  0.000000e+00  0.000000e+00
        14      pv       -11.77552359       -7.850349061       -11.77552359  0.000000e+00  0.000000e+00  0.000000e+00
        15      pv       -11.77552359       -5.887761796       -9.812936329  0.000000e+00  0.000000e+00  0.000000e+00
        16      pv       -11.77552359       -7.850349061       -7.850349061  0.000000e+00  0.000000e+00  0.000000e+00
        17      pv       -11.77552359       -5.887761796       -5.887761796  0.000000e+00  0.000000e+00  0.000000e+00
        18      pv       -11.77552359       -7.850349061       -3.925174531  0.000000e+00  0.000000e+00  0.000000e+00
        19      pv       -11.77552359       -5.887761796       -1.962587265  0.000000e+00  0.000000e+00  0.000000e+00
        20      pv       -11.77552359       -7.850349061                  0  0.000000e+00  0.000000e+00  0.000000e+00
        21      pv       -11.77552359       -5.887761796        1.962587265  0.000000e+00  0.000000e+00  0.000000e+00
        22      pv       -11.77552359       -7.850349061        3.925174531  0.000000e+00  0.000000e+00  0.000000e+00
        23      pv       -11.77552359       -5.887761796        5.887761796  0.000000e+00  0.000000e+00  0.000000e+00
        24      pv       -11.77552359       -7.850349061        7.850349061  0.000000e+00  0.000000e+00  0.000000e+00
        25      pv       -11.77552359       -5.887761796        9.812936329  0.000000e+00  0.000000e+00  0.000000e+00
        26      pv       -11.77552359       -7.850349061        11.77552359  0.000000e+00  0.000000e+00  0.000000e+00
        27      pv       -11.77552359       -5.887761796        13.73811086  0.000000e+00  0.000000e+00  0.000000e+00
        28      pv       -11.77552359       -3.925174531       -11.77552359  0.000000e+00  0.000000e+00  0.000000e+00
        29      pv       -11.77552359       -1.962587265       -9.812936329  0.000000e+00  0.000000e+00  0.000000e+00
        30      pv       -11.77552359       -3.925174531       -7.850349061  0.000000e+00  0.000000e+00  0.000000e+00
        31      pv       -11.77552359       -1.962587265       -5.887761796  0.000000e+00  0.000000e+00  0.000000e+00
        32      pv       -11.77552359       -3.925174531       -3.925174531  0.000000e+00  0.000000e+00  0.000000e+00
        33      pv       -11.77552359       -1.962587265       -1.962587265  0.000000e+00  0.000000e+00  0.000000e+00
        34      pv       -11.77552359       -3.925174531                  0  0.000000e+00  0.000000e+00  0.000000e+00
        35      pv       -11.77552359       -1.962587265        1.962587265  0.000000e+00  0.000000e+00  0.000000e+00
        36      pv       -11.77552359       -3.925174531        3.925174531  0.000000e+00  0.000000e+00  0.000000e+00
        37      pv       -11.77552359       -1.962587265        5.887761796  0.000000e+00  0.000000e+00  0.000000e+00
        38      pv       -11.77552359       -3.925174531        7.850349061  0.000000e+00  0.000000e+00  0.000000e+00
        39      pv       -11.77552359       -1.962587265        9.812936329  0.000000e+00  0.000000e+00  0.000000e+00
        40      pv       -11.77552359       -3.925174531        11.77552359  0.000000e+00  0.000000e+00  0.000000e+00
        41      pv       -11.77552359       -1.962587265        13.73811086  0.000000e+00  0.000000e+00  0.000000e+00
        42      pv       -11.77552359                  0       -11.77552359  0.000000e+00  0.000000e+00  0.000000e+00
        43      pv       -11.77552359        1.962587265       -9.812936329  0.000000e+00  0.000000e+00  0.000000e+00
        44      pv       -11.77552359                  0       -7.850349061  0.000000e+00  0.000000e+00  0.000000e+00
        45      pv       -11.77552359        1.962587265       -5.887761796  0.000000e+00  0.000000e+00  0.000000e+00
        46      pv       -11.77552359                  0       -3.925174531  0.000000e+00  0.000000e+00  0.000000e+00
        47      pv       -11.77552359        1.962587265       -1.962587265  0.000000e+00  0.000000e+00  0.000000e+00
        48      pv       -11.77552359                  0                  0  0.000000e+00  0.000000e+00  0.000000e+00
        49      pv       -11.77552359        1.962587265        1.962587265  0.000000e+00  0.000000e+00  0.000000e+00
        50      pv       -11.77552359                  0        3.925174531  0.000000e+00  0.000000e+00  0.000000e+00
        51      pv       -11.77552359        1.962587265        5.887761796  0.000000e+00  0.000000e+00  0.000000e+00
        52      pv       -11.77552359                  0        7.850349061  0.000000e+00  0.000000e+00  0.000000e+00
        53      pv       -11.77552359        1.962587265        9.812936329  0.000000e+00  0.000000e+00  0.000000e+00
        54      pv       -11.77552359                  0        11.77552359  0.000000e+00  0.000000e+00  0.000000e+00
        55      pv       -11.77552359        1.962587265        13.73811086  0.000000e+00  0.000000e+00  0.000000e+00
        56      pv       -11.77552359        3.925174531       -11.77552359  0.000000e+00  0.000000e+00  0.000000e+00
        57      pv       -11.77552359        5.887761796       -9.812936329  0.000000e+00  0.000000e+00  0.000000e+00
        58      pv       -11.77552359        3.925174531       -7.850349061  0.000000e+00  0.000000e+00  0.000000e+00
        59      pv       -11.77552359        5.887761796       -5.887761796  0.000000e+00  0.000000e+00  0.000000e+00
        60      pv       -11.77552359        3.925174531       -3.925174531  0.000000e+00  0.000000e+00  0.000000e+00
        61      pv       -11.77552359        5.887761796       -1.962587265  0.000000e+00  0.000000e+00  0.000000e+00
        62      pv       -11.77552359        3.925174531                  0  0.000000e+00  0.000000e+00  0.000000e+00
        63      pv       -11.77552359        5.887761796        1.962587265  0.000000e+00  0.000000e+00  0.000000e+00
        64      pv       -11.77552359        3.925174531        3.925174531  0.000000e+00  0.000000e+00  0.000000e+00
        65      pv       -11.77552359        5.887761796        5.887761796  0.000000e+00  0.000000e+00  0.000000e+00
        66      pv       -11.77552359        3.925174531        7.850349061  0.000000e+00  0.000000e+00  0.000000e+00
        67      pv       -11.77552359        5.887761796        9.812936329  0.000000e+00  0.000000e+00  0.000000e+00
        68      pv       -11.77552359        3.925174531        11.77552359  0.000000e+00  0.000000e+00  0.000000e+00
        69      pv       -11.77552359        5.887761796        13.73811086  0.000000e+00  0.000000e+00  0.000000e+00
        70      pv       -11.77552359        7.850349061       -11.77552359  0.000000e+00  0.000000e+00  0.000000e+00
        71      pv       -11.77552359        9.812936329       -9.812936329  0.000000e+00  0.000000e+00  0.000000e+00
        72      pv       -11.77552359        7.850349061       -7.850349061  0.000000e+00  0.000000e+00  0.000000e+00
        73      pv       -11.77552359        9.812936329       -5.887761796  0.000000e+00  0.000000e+00  0.000000e+00
        74      pv       -11.77552359        7.850349061       -3.925174531  0.000000e+00  0.000000e+00  0.000000e+00
        75      pv       -11.77552359        9.812936329       -1.962587265  0.000000e+00  0.000000e+00  0.000000e+00
        76      pv       -11.77552359        7.850349061                  0  0.000000e+00  0.000000e+00  0.000000e+00
        77      pv       -11.77552359        9.812936329        1.962587265  0.000000e+00  0.000000e+00  0.000000e+00
        78      pv       -11.77552359        7.850349061        3.925174531  0.000000e+00  0.000000e+00  0.000000e+00
        79      pv       -11.77552359        9.812936329        5.887761796  0.000000e+00  0.000000e+00  0.000000e+00
        80      pv       -11.77552359        7.850349061        7.850349061  0.000000e+00  0.000000e+00  0.000000e+00
        81      pv       -11.77552359        9.812936329        9.812936329  0.000000e+00  0.000000e+00  0.000000e+00
        82      pv       -11.77552359        7.850349061        11.77552359  0.000000e+00  0.000000e+00  0.000000e+00
        83      pv       -11.77552359        9.812936329        13.73811086  0.000000e+00  0.000000e+00  0.000000e+00
        84      pv       -11.77552359        11.77552359       -11.77552359  0.000000e+00  0.000000e+00  0.000000e+00
        85      pv       -11.77552359        13.73811086       -9.812936329  0.000000e+00  0.000000e+00  0.000000e+00
        86      pv       -11.77552359        11.77552359       -7.850349061  0.000000e+00  0.000000e+00  0.000000e+00
        87      pv       -11.77552359        13.73811086       -5.887761796  0.000000e+00  0.000000e+00  0.000000e+00
        88      pv       -11.77552359        11.77552359       -3.925174531  0.000000e+00  0.000000e+00  0.000000e+00
        89      pv       -11.77552359        13.73811086       -1.962587265  0.000000e+00  0.000000e+00  0.000000e+00
        90      pv       -11.77552359        11.77552359                  0  0.000000e+00  0.000000e+00  0.000000e+00
        91      pv       -11.77552359        13.73811086        1.962587265  0.000000e+00  0.000000e+00  0.000000e+00
        92      pv       -11.77552359        11.77552359        3.925174531  0.000000e+00  0.000000e+00  0.000000e+00
        93      pv       -11.77552359        13.73811086        5.887761796  0.000000e+00  0.000000e+00  0.000000e+00
        94      pv       -11.77552359        11.77552359        7.850349061  0.000000e+00  0.000000e+00  0.000000e+00
        95      pv       -11.77552359        13.73811086        9.812936329  0.000000e+00  0.000000e+00  0.000000e+00
        96      pv       -11.77552359        11.77552359        11.77552359  0.000000e+00  0.000000e+00  0.000000e+00
        97      pv       -11.77552359        13.73811086        13.73811086  0.000000e+00  0.000000e+00  0.000000e+00
        98      pv       -7.850349061       -11.77552359       -11.77552359  0.000000e+00  0.000000e+00  0.000000e+00
        99      pv       -7.850349061       -9.812936329       -9.812936329  0.000000e+00  0.000000e+00  0.000000e+00
       100      pv       -7.850349061       -11.77552359       -7.850349061  0.000000e+00  0.000000e+00  0.000000e+00
       101      pv       -7.850349061       -9.812936329       -5.887761796  0.000000e+00  0.000000e+00  0.000000e+00
       102      pv       -7.850349061       -11.77552359       -3.925174531  0.000000e+00  0.000000e+00  0.000000e+00
       103      pv       -7.850349061       -9.812936329       -1.962587265  0.000000e+00  0.000000e+00  0.000000e+00
       104      pv       -7.850349061       -11.77552359                  0  0.000000e+00  0.000000e+00  0.000000e+00
       105      pv       -7.850349061       -9.812936329        1.962587265  0.000000e+00  0.000000e+00  0.000000e+00
       106      pv       -7.850349061       -11.77552359        3.925174531  0.000000e+00  0.000000e+00  0.000000e+00
       107      pv       -7.850349061       -9.812936329        5.887761796  0.000000e+00  0.000000e+00  0.000000e+00
       108      pv       -7.850349061       -11.77552359        7.850349061  0.000000e+00  0.000000e+00  0.000000e+00
       109      pv       -7.850349061       -9.812936329        9.812936329  0.000000e+00  0.000000e+00  0.000000e+00
       110      pv       -7.850349061       -11.77552359        11.77552359  0.000000e+00  0.000000e+00  0.000000e+00
       111      pv       -7.850349061       -9.812936329        13.73811086  0.000000e+00  0.000000e+00  0.000000e+00
       112      pv       -7.850349061       -7.850349061       -11.77552359  0.000000e+00  0.000000e+00  0.000000e+00
       113      pv       -7.850349061       -5.887761796       -9.812936329  0.000000e+00  0.000000e+00  0.000000e+00
       114      pv       -7.850349061       -7.850349061       -7.850349061  0.000000e+00  0.000000e+00  0.000000e+00
       115      pv       -7.850349061       -5.887761796       -5.887761796  0.000000e+00  0.000000e+00  0.000000e+00
       116      pv       -7.850349061       -7.850349061       -3.925174531  0.000000e+00  0.000000e+00  0.000000e+00
       117      pv       -7.850349061       -5.887761796       -1.962587265  0.000000e+00  0.000000e+00  0.000000e+00
       118      pv       -7.850349061       -7.850349061                  0  0.000000e+00  0.000000e+00  0.000000e+00
       119      pv       -7.850349061       -5.887761796        1.962587265  0.000000e+00  0.000000e+00  0.000000e+00
       120      pv       -7.850349061       -7.850349061        3.925174531  0.000000e+00  0.000000e+00  0.000000e+00
       121      pv       -7.850349061       -5.887761796        5.887761796  0.000000e+00  0.000000e+00  0.000000e+00
       122      pv       -7.850349061       -7.850349061        7.850349061  0.000000e+00  0.000000e+00  0.000000e+00
       123      pv       -7.850349061       -5.887761796        9.812936329  0.000000e+00  0.000000e+00  0.000000e+00
       124      pv       -7.850349061       -7.850349061        11.77552359  0.000000e+00  0.000000e+00  0.000000e+00
       125      pv       -7.850349061       -5.887761796        13.73811086  0.000000e+00  0.000000e+00  0.000000e+00
       126      pv       -7.850349061       -3.925174531       -11.77552359  0.000000e+00  0.000000e+00  0.000000e+00
       127      pv       -7.850349061       -1.962587265       -9.812936329  0.000000e+00  0.000000e+00  0.000000e+00
       128      pv       -7.850349061       -3.925174531       -7.850349061  0.000000e+00  0.000000e+00  0.000000e+00
       129      pv       -7.850349061       -1.962587265       -5.887761796  0.000000e+00  0.000000e+00  0.000000e+00
       130      pv       -7.850349061       -3.925174531       -3.925174531  0.000000e+00  0.000000e+00  0.000000e+00
       131      pv       -7.850349061       -1.962587265       -1.962587265  0.000000e+00  0.000000e+00  0.000000e+00
       132      pv       -7.850349061       -3.925174531                  0  0.000000e+00  0.000000e+00  0.000000e+00
       133      pv       -7.850349061       -1.962587265        1.962587265  0.000000e+00  0.000000e+00  0.000000e+00
       134      pv       -7.850349061       -3.925174531        3.925174531  0.000000e+00  0.000000e+00  0.000000e+00
       135      pv       -7.850349061       -1.962587265        5.887761796  0.000000e+00  0.000000e+00  0.000000e+00
       136      pv       -7.850349061       -3.925174531        7.850349061  0.000000e+00  0.000000e+00  0.000000e+00
       137      pv       -7.850349061       -1.962587265        9.812936329  0.000000e+00  0.000000e+00  0.000000e+00
       138      pv       -7.850349061       -3.925174531        11.77552359  0.000000e+00  0.000000e+00  0.000000e+00
       139      pv       -7.850349061       -1.962587265        13.73811086  0.000000e+00  0.000000e+00  0.000000e+00
       140      pv       -7.850349061                  0       -11.77552359  0.000000e+00  0.000000e+00  0.000000e+00
       141      pv       -7.850349061        1.962587265       -9.812936329  0.000000e+00  0.000000e+00  0.000000e+00
       142      pv       -7.850349061                  0       -7.850349061  0.000000e+00  0.000000e+00  0.000000e+00
       143      pv       -7.850349061        1.962587265       -5.887761796  0.000000e+00  0.000000e+00  0.000000e+00
       144      pv       -7.850349061                  0       -3.925174531  0.000000e+00  0.000000e+00  0.000000e+00
       145      pv       -7.850349061        1.962587265       -1.962587265  0.000000e+00  0.000000e+00  0.000000e+00
       146      pv       -7.850349061                  0                  0  0.000000e+00  0.000000e+00  0.000000e+00
       147      pv       -7.850349061        1.962587265        1.962587265  0.000000e+00  0.000000e+00  0.000000e+00
       148      pv       -7.850349061                  0        3.925174531  0.000000e+00  0.000000e+00  0.000000e+00
       149      pv       -7.850349061        1.962587265        5.887761796  0.000000e+00  0.000000e+00  0.000000e+00
       150      pv       -7.850349061                  0        7.850349061  0.000000e+00  0.000000e+00  0.000000e+00
       151      pv       -7.850349061        1.962587265        9.812936329  0.000000e+00  0.000000e+00  0.000000e+00
       152      pv       -7.850349061                  0        11.77552359  0.000000e+00  0.000000e+00  0.000000e+00
       153      pv       -7.850349061        1.962587265        13.73811086  0.000000e+00  0.000000e+00  0.000000e+00
       154      pv       -7.850349061        3.925174531       -11.77552359  0.000000e+00  0.000000e+00  0.000000e+00
       155      pv       -7.850349061        5.887761796       -9.812936329  0.000000e+00  0.000000e+00  0.000000e+00
       156      pv       -7.850349061        3.925174531       -7.850349061  0.000000e+00  0.000000e+00  0.000000e+00
       157      pv       -7.850349061        5.887761796       -5.887761796  0.000000e+00  0.000000e+00  0.000000e+00
       158      pv       -7.850349061        3.925174531       -3.925174531  0.000000e+00  0.000000e+00  0.000000e+00
       159      pv       -7.850349061        5.887761796       -1.962587265  0.000000e+00  0.000000e+00  0.000000e+00
       160      pv       -7.850349061        3.925174531                  0  0.000000e+00  0.000000e+00  0.000000e+00
       161      pv       -7.850349061        5.887761796        1.962587265  0.000000e+00  0.000000e+00  0.000000e+00
       162      pv       -7.850349061        3.925174531        3.925174531  0.000000e+00  0.000000e+00  0.000000e+00
       163      pv       -7.850349061        5.887761796        5.887761796  0.000000e+00  0.000000e+00  0.000000e+00
       164      pv       -7.850349061        3.925174531        7.850349061  0.000000e+00  0.000000e+00  0.000000e+00
       165      pv       -7.850349061        5.887761796        9.812936329  0.000000e+00  0.000000e+00  0.000000e+00
       166      pv       -7.850349061        3.925174531        11.77552359  0.000000e+00  0.000000e+00  0.000000e+00
       167      pv       -7.850349061        5.887761796        13.73811086  0.000000e+00  0.000000e+00  0.000000e+00
       168      pv       -7.850349061        7.850349061       -11.77552359  0.000000e+00  0.000000e+00  0.000000e+00
       169      pv       -7.850349061        9.812936329       -9.812936329  0.000000e+00  0.000000e+00  0.000000e+00
       170      pv       -7.850349061        7.850349061       -7.850349061  0.000000e+00  0.000000e+00  0.000000e+00
       171      pv       -7.850349061        9.812936329       -5.887761796  0.000000e+00  0.000000e+00  0.000000e+00
       172      pv       -7.850349061        7.850349061       -3.925174531  0.000000e+00  0.000000e+00  0.000000e+00
       173      pv       -7.850349061        9.812936329       -1.962587265  0.000000e+00  0.000000e+00  0.000000e+00
       174      pv       -7.850349061        7.850349061                  0  0.000000e+00  0.000000e+00  0.000000e+00
       175      pv       -7.850349061        9.812936329        1.962587265  0.000000e+00  0.000000e+00  0.000000e+00
       176      pv       -7.850349061        7.850349061        3.925174531  0.000000e+00  0.000000e+00  0.000000e+00
       177      pv       -7.850349061        9.812936329        5.887761796  0.000000e+00  0.000000e+00  0.000000e+00
       178      pv       -7.850349061        7.850349061        7.850349061  0.000000e+00  0.000000e+00  0.000000e+00
       179      pv       -7.850349061        9.812936329        9.812936329  0.000000e+00  0.000000e+00  0.000000e+00
       180      pv       -7.850349061        7.850349061        11.77552359  0.000000e+00  0.000000e+00  0.000000e+00
       181      pv       -7.850349061        9.812936329        13.73811086  0.000000e+00  0.000000e+00  0.000000e+00
       182      pv       -7.850349061        11.77552359       -11.77552359  0.000000e+00  0.000000e+00  0.000000e+00
       183      pv       -7.850349061        13.73811086       -9.812936329  0.000000e+00  0.000000e+00  0.000000e+00
       184      pv       -7.850349061        11.77552359       -7.850349061  0.000000e+00  0.000000e+00  0.000000e+00
       185      pv       -7.850349061        13.73811086       -5.887761796  0.000000e+00  0.000000e+00  0.000000e+00
       186      pv       -7.850349061        11.77552359       -3.925174531  0.000000e+00  0.000000e+00  0.000000e+00
       187      pv       -7.850349061        13.73811086       -1.962587265  0.000000e+00  0.000000e+00  0.000000e+00
       188      pv       -7.850349061        11.77552359                  0  0.000000e+00  0.000000e+00  0.000000e+00
       189      pv       -7.850349061        13.73811086        1.962587265  0.000000e+00  0.000000e+00  0.000000e+00
       190      pv       -7.850349061        11.77552359        3.925174531  0.000000e+00  0.000000e+00  0.000000e+00
       191      pv       -7.850349061        13.73811086        5.887761796  0.000000e+00  0.000000e+00  0.000000e+00
       192      pv       -7.850349061        11.77552359        7.850349061  0.000000e+00  0.000000e+00  0.000000e+00
       193      pv       -7.850349061        13.73811086        9.812936329  0.000000e+00  0.000000e+00  0.000000e+00
       194      pv       -7.850349061        11.77552359        11.77552359  0.000000e+00  0.000000e+00  0.000000e+00
       195      pv       -7.850349061        13.73811086        13.73811086  0.000000e+00  0.000000e+00  0.000000e+00
       196      pv       -3.925174531       -11.77552359       -11.77552359  0.000000e+00  0.000000e+00  0.000000e+00
       197      pv       -3.925174531       -9.812936329       -9.812936329  0.000000e+00  0.000000e+00  0.000000e+00
       198      pv       -3.925174531       -11.77552359       -7.850349061  0.000000e+00  0.000000e+00  0.000000e+00
       199      pv       -3.925174531       -9.812936329       -5.887761796  0.000000e+00  0.000000e+00  0.000000e+00
       200      pv       -3.925174531       -11.77552359       -3.925174531  0.000000e+00  0.000000e+00  0.000000e+00
       201      pv       -3.925174531       -9.812936329       -1.962587265  0.000000e+00  0.000000e+00  0.000000e+00
       202      pv       -3.925174531       -11.77552359                  0  0.000000e+00  0.000000e+00  0.000000e+00
       203      pv       -3.925174531       -9.812936329        1.962587265  0.000000e+00  0.000000e+00  0.000000e+00
       204      pv       -3.925174531       -11.77552359        3.925174531  0.000000e+00  0.000000e+00  0.000000e+00
       205      pv       -3.925174531       -9.812936329        5.887761796  0.000000e+00  0.000000e+00  0.000000e+00
       206      pv       -3.925174531       -11.77552359        7.850349061  0.000000e+00  0.000000e+00  0.000000e+00
       207      pv       -3.925174531       -9.812936329        9.812936329  0.000000e+00  0.000000e+00  0.000000e+00
       208      pv       -3.925174531       -11.77552359        11.77552359  0.000000e+00  0.000000e+00  0.000000e+00
       209      pv       -3.925174531       -9.812936329        13.73811086  0.000000e+00  0.000000e+00  0.000000e+00
       210      pv       -3.925174531       -7.850349061       -11.77552359  0.000000e+00  0.000000e+00  0.000000e+00
       211      pv       -3.925174531       -5.887761796       -9.812936329  0.000000e+00  0.000000e+00  0.000000e+00
       212      pv       -3.925174531       -7.850349061       -7.850349061  0.000000e+00  0.000000e+00  0.000000e+00
       213      pv       -3.925174531       -5.887761796       -5.887761796  0.000000e+00  0.000000e+00  0.000000e+00
       214      pv       -3.925174531       -7.850349061       -3.925174531  0.000000e+00  0.000000e+00  0.000000e+00
       215      pv       -3.925174531       -5.887761796       -1.962587265  0.000000e+00  0.000000e+00  0.000000e+00
       216      pv       -3.925174531       -7.850349061                  0  0.000000e+00  0.000000e+00  0.000000e+00
       217      pv       -3.925174531       -5.887761796        1.962587265  0.000000e+00  0.000000e+00  0.000000e+00
       218      pv       -3.925174531       -7.850349061        3.925174531  0.000000e+00  0.000000e+00  0.000000e+00
       219      pv       -3.925174531       -5.887761796        5.887761796  0.000000e+00  0.000000e+00  0.000000e+00
       220      pv       -3.925174531       -7.850349061        7.850349061  0.000000e+00  0.000000e+00  0.000000e+00
       221      pv       -3.925174531       -5.887761796        9.812936329  0.000000e+00  0.000000e+00  0.000000e+00
       222      pv       -3.925174531       -7.850349061        11.77552359  0.000000e+00  0.000000e+00  0.000000e+00
       223      pv       -3.925174531       -5.887761796        13.73811086  0.000000e+00  0.000000e+00  0.000000e+00
       224      pv       -3.925174531       -3.925174531       -11.77552359  0.000000e+00  0.000000e+00  0.000000e+00
       225      pv       -3.925174531       -1.962587265       -9.812936329  0.000000e+00  0.000000e+00  0.000000e+00
       226      pv       -3.925174531       -3.925174531       -7.850349061  0.000000e+00  0.000000e+00  0.000000e+00
       227      pv       -3.925174531       -1.962587265       -5.887761796  0.000000e+00  0.000000e+00  0.000000e+00
       228      pv       -3.925174531       -3.925174531       -3.925174531  0.000000e+00  0.000000e+00  0.000000e+00
       229      pv       -3.925174531       -1.962587265       -1.962587265  0.000000e+00  0.000000e+00  0.000000e+00
       230      pv       -3.925174531       -3.925174531                  0  0.000000e+00  0.000000e+00  0.000000e+00
       231      pv       -3.925174531       -1.962587265        1.962587265  0.000000e+00  0.000000e+00  0.000000e+00
       232      pv       -3.925174531       -3.925174531        3.925174531  0.000000e+00  0.000000e+00  0.000000e+00
       233      pv       -3.925174531       -1.962587265        5.887761796  0.000000e+00  0.000000e+00  0.000000e+00
       234      pv       -3.925174531       -3.925174531        7.850349061  0.000000e+00  0.000000e+00  0.000000e+00
       235      pv       -3.925174531       -1.962587265        9.812936329  0.000000e+00  0.000000e+00  0.000000e+00
       236      pv       -3.925174531       -3.925174531        11.77552359  0.000000e+00  0.000000e+00  0.000000e+00
       237      pv       -3.925174531       -1.962587265        13.73811086  0.000000e+00  0.000000e+00  0.000000e+00
       238      pv       -3.925174531                  0       -11.77552359  0.000000e+00  0.000000e+00  0.000000e+00
       239      pv       -3.925174531        1.962587265       -9.812936329  0.000000e+00  0.000000e+00  0.000000e+00
       240      pv       -3.925174531                  0       -7.850349061  0.000000e+00  0.000000e+00  0.000000e+00
       241      pv       -3.925174531        1.962587265       -5.887761796  0.000000e+00  0.000000e+00  0.000000e+00