<OpenMD version=2>
  <MetaData>

molecule{
  name = "Al";

  atom[0]{
    type="Al_FQ";
    position( 0.0, 0.0, 0.0 );
  }
}

molecule{
  name = "O";

  atom[0]{
    type="O_FQ";
    position( 0.0, 0.0, 0.0 );
  }
}

component{
  type = "Al";
	nMol = 1728;
}
component{
  type = "O";
	nMol = 2592;
}

forceField = "DR-EAM";
forceFieldFileName = "DR-EAM.v2.frc";

outputFluctuatingCharges = true; 
outputElectricField = true; 
outputDensity = true; 

ensemble = NVT;
dt = 0.1;
runTime = 1;
sampleTime = 1;
statusTime = 1;
targetTemp = 10;
tauThermostat = 100;

cutoffMethod = "shifted_force";
cutoffRadius = 12; 
electrostaticScreeningMethod = "DAMPED";
dampingAlpha = 0.105;

statFileFormat = "TIME|TOTAL_ENERGY|POTENTIAL_ENERGY|KINETIC_ENERGY|TEMPERATURE|PRESSURE|VOLUME|CONSERVED_QUANTITY|SYSTEM_DIPOLE";


## Last run using OpenMD version: 2.6, revision: 6bd3a254e3606fcb0e90721e2d6c530258469ec2
  </MetaData>
  <Snapshot>
    <FrameData>
        Time: 1.1
        Hmat: {{ 33.288, 0, 0 }, { 0, 28.83, 0 }, { 0, 0, 39.3488 }}
  Thermostat: -6.247888386e-05 , -4.946419462e-05
    Barostat: {{ 0, 0, 0 }, { 0, 0, 0 }, { 0, 0, 0 }}
    </FrameData>
    <StuntDoubles>
         0      pv         7.43318771       -1.671354315        19.42741308  4.698546e-04 -4.112523e-05 -1.118048e-03
         1      pv         7.43318771        7.938645685        19.42741308  4.698546e-04 -4.112524e-05 -1.118048e-03
         2      pv         7.43318771        17.54864568        19.42741308  4.698546e-04 -4.112523e-05 -1.118048e-03
         3      pv        24.07718771       -1.671354315        19.42741308  4.698546e-04 -4.112523e-05 -1.118048e-03
         4      pv        24.07718771        7.938645685        19.42741308  4.698546e-04 -4.112523e-05 -1.118048e-03
         5      pv        24.07718771        17.54864568        19.42741308  4.698546e-04 -4.112523e-05 -1.118048e-03
         6      pv        7.432567361       -1.671478128        15.54830713 -6.557311e-04 -2.649284e-04  5.034722e-04
         7      pv        7.432567361        7.938521872        15.54830713 -6.557311e-04 -2.649284e-04  5.034722e-04
         8      pv        7.432567361        17.54852187        15.54830713 -6.557311e-04 -2.649284e-04  5.034722e-04
         9      pv        24.07656736       -1.671478128        15.54830713 -6.557311e-04 -2.649284e-04  5.034722e-04
        10      pv        24.07656736        7.938521872        15.54830713 -6.557311e-04 -2.649284e-04  5.034722e-04
        11      pv        24.07656736        17.54852187        15.54830713 -6.557311e-04 -2.649284e-04  5.034722e-04
        12      pv        6.076585226       -4.091248949        13.36248324 -6.233383e-04  1.505064e-04  8.225164e-04
        13      pv        6.076585226        5.518751051        13.36248324 -6.233383e-04  1.505064e-04  8.225164e-04
        14      pv        6.076585226        15.12875105        13.36248324 -6.233383e-04  1.505064e-04  8.225164e-04
        15      pv        22.72058523       -4.091248949        13.36248324 -6.233383e-04  1.505064e-04  8.225164e-04
        16      pv        22.72058523        5.518751051        13.36248324 -6.233383e-04  1.505064e-04  8.225164e-04
        17      pv        22.72058523        15.12875105        13.36248324 -6.233383e-04  1.505064e-04  8.225164e-04
        18      pv        6.076830728        -4.09136869        17.24150136 -1.772550e-04 -6.650118e-05 -9.575615e-04
        19      pv        6.076830728         5.51863131        17.24150136 -1.772550e-04 -6.650117e-05 -9.575615e-04
        20      pv        6.076830728        15.12863131        17.24150136 -1.772550e-04 -6.650117e-05 -9.575615e-04
        21      pv        22.72083073        -4.09136869        17.24150136 -1.772550e-04 -6.650118e-05 -9.575615e-04
        22      pv        22.72083073         5.51863131        17.24150136 -1.772550e-04 -6.650117e-05 -9.575615e-04
        23      pv        22.72083073        15.12863131        17.24150136 -1.772550e-04 -6.650117e-05 -9.575615e-04
        24      pv         7.43320275       -1.671542329         8.99068709  4.980963e-04 -3.815545e-04  1.192757e-03
        25      pv         7.43320275        7.938457671         8.99068709  4.980963e-04 -3.815545e-04  1.192757e-03
        26      pv         7.43320275        17.54845767         8.99068709  4.980963e-04 -3.815545e-04  1.192757e-03
        27      pv        24.07720275       -1.671542329         8.99068709  4.980963e-04 -3.815545e-04  1.192757e-03
        28      pv        24.07720275        7.938457671         8.99068709  4.980963e-04 -3.815545e-04  1.192757e-03
        29      pv        24.07720275        17.54845767         8.99068709  4.980963e-04 -3.815545e-04  1.192757e-03
        30      pv        7.432650507       -1.671284506        12.86970234 -5.043375e-04  8.567348e-05 -5.924346e-04
        31      pv        7.432650507        7.938715494        12.86970234 -5.043375e-04  8.567348e-05 -5.924346e-04
        32      pv        7.432650507        17.54871549        12.86970234 -5.043375e-04  8.567348e-05 -5.924346e-04
        33      pv        24.07665051       -1.671284506        12.86970234 -5.043375e-04  8.567348e-05 -5.924346e-04
        34      pv        24.07665051        7.938715494        12.86970234 -5.043375e-04  8.567348e-05 -5.924346e-04
        35      pv        24.07665051        17.54871549        12.86970234 -5.043375e-04  8.567348e-05 -5.924346e-04
        36      pv         6.07655593       -4.091340462        10.68362239 -6.765293e-04 -1.548698e-05 -7.378367e-04
        37      pv         6.07655593        5.518659538        10.68362239 -6.765293e-04 -1.548697e-05 -7.378367e-04
        38      pv         6.07655593        15.12865954        10.68362239 -6.765293e-04 -1.548697e-05 -7.378367e-04
        39      pv        22.72055593       -4.091340462        10.68362239 -6.765293e-04 -1.548698e-05 -7.378367e-04
        40      pv        22.72055593        5.518659538        10.68362239 -6.765293e-04 -1.548697e-05 -7.378367e-04
        41      pv        22.72055593        15.12865954        10.68362239 -6.765293e-04 -1.548697e-05 -7.378367e-04
        42      pv        6.076819398       -4.091274516         6.80452471 -1.978244e-04  1.041316e-04  8.980207e-04
        43      pv        6.076819398        5.518725484         6.80452471 -1.978244e-04  1.041316e-04  8.980207e-04
        44      pv        6.076819398        15.12872548         6.80452471 -1.978244e-04  1.041316e-04  8.980207e-04
        45      pv         22.7208194       -4.091274516         6.80452471 -1.978244e-04  1.041316e-04  8.980207e-04
        46      pv         22.7208194        5.518725484         6.80452471 -1.978244e-04  1.041316e-04  8.980207e-04
        47      pv         22.7208194        15.12872548         6.80452471 -1.978244e-04  1.041316e-04  8.980207e-04
        48      pv        3.303555112       -4.127344562         19.4276199 -6.776372e-04 -2.330659e-05 -7.422670e-04
        49      pv        3.303555112        5.482655438         19.4276199 -6.776372e-04 -2.330659e-05 -7.422670e-04
        50      pv        3.303555112        15.09265544         19.4276199 -6.776372e-04 -2.330659e-05 -7.422670e-04
        51      pv        19.94755511       -4.127344562         19.4276199 -6.776372e-04 -2.330659e-05 -7.422670e-04
        52      pv        19.94755511        5.482655438         19.4276199 -6.776372e-04 -2.330659e-05 -7.422670e-04
        53      pv        19.94755511        15.09265544         19.4276199 -6.776372e-04 -2.330659e-05 -7.422670e-04
        54      pv        3.303819417       -4.127278672        15.54853429 -1.980112e-04  9.624209e-05  9.153325e-04
        55      pv        3.303819417        5.482721328        15.54853429 -1.980112e-04  9.624209e-05  9.153325e-04
        56      pv        3.303819417        15.09272133        15.54853429 -1.980112e-04  9.624209e-05  9.153325e-04
        57      pv        19.94781942       -4.127278672        15.54853429 -1.980112e-04  9.624209e-05  9.153325e-04
        58      pv        19.94781942        5.482721328        15.54853429 -1.980112e-04  9.624209e-05  9.153325e-04
        59      pv        19.94781942        15.09272133        15.54853429 -1.980112e-04  9.624209e-05  9.153325e-04
        60      pv        3.303575383       -4.127250232        8.990480038 -6.409450e-04  1.477664e-04  8.169582e-04
        61      pv        3.303575383        5.482749768        8.990480038 -6.409450e-04  1.477664e-04  8.169582e-04
        62      pv        3.303575383        15.09274977        8.990480038 -6.409450e-04  1.477664e-04  8.169582e-04
        63      pv        19.94757539       -4.127250232        8.990480038 -6.409450e-04  1.477664e-04  8.169582e-04
        64      pv        19.94757539        5.482749768        8.990480038 -6.409450e-04  1.477664e-04  8.169582e-04
        65      pv        19.94757539        15.09274977        8.990480038 -6.409450e-04  1.477664e-04  8.169582e-04
        66      pv        3.303813821       -4.127374264         12.8695036 -2.081753e-04 -7.696502e-05 -9.534166e-04
        67      pv        3.303813821        5.482625736         12.8695036 -2.081753e-04 -7.696501e-05 -9.534166e-04
        68      pv        3.303813821        15.09262574         12.8695036 -2.081753e-04 -7.696501e-05 -9.534166e-04
        69      pv        19.94781382       -4.127374264         12.8695036 -2.081753e-04 -7.696502e-05 -9.534166e-04
        70      pv        19.94781382        5.482625736         12.8695036 -2.081753e-04 -7.696501e-05 -9.534166e-04
        71      pv        19.94781382        15.09262574         12.8695036 -2.081753e-04 -7.696501e-05 -9.534166e-04
        72      pv        7.371203524        3.133631496        19.42741026  4.984417e-04 -6.688284e-05 -1.123095e-03
        73      pv        7.371203524        12.74363149        19.42741026  4.984417e-04 -6.688284e-05 -1.123095e-03
        74      pv        7.371203524        22.35363149        19.42741026  4.984417e-04 -6.688284e-05 -1.123095e-03
        75      pv        24.01520353        3.133631496        19.42741026  4.984417e-04 -6.688284e-05 -1.123095e-03
        76      pv        24.01520353        12.74363149        19.42741026  4.984417e-04 -6.688284e-05 -1.123095e-03
        77      pv        24.01520353        22.35363149        19.42741026  4.984417e-04 -6.688284e-05 -1.123095e-03
        78      pv        7.370585369         3.13355596        15.54830302 -6.233126e-04 -2.034889e-04  4.961903e-04
        79      pv        7.370585369        12.74355596        15.54830302 -6.233126e-04 -2.034889e-04  4.961903e-04
        80      pv        7.370585369        22.35355596        15.54830302 -6.233126e-04 -2.034888e-04  4.961903e-04
        81      pv        24.01458537         3.13355596        15.54830302 -6.233126e-04 -2.034889e-04  4.961903e-04
        82      pv        24.01458537        12.74355596        15.54830302 -6.233126e-04 -2.034889e-04  4.961903e-04
        83      pv        24.01458537        22.35355596        15.54830302 -6.233126e-04 -2.034889e-04  4.961903e-04
        84      pv        6.014936699        0.713672969        13.36251746  1.435498e-05  9.097132e-06  8.844484e-04
        85      pv        6.014936699        10.32367297        13.36251746  1.435498e-05  9.097135e-06  8.844484e-04
        86      pv        6.014936699        19.93367297        13.36251746  1.435498e-05  9.097132e-06  8.844484e-04
        87      pv         22.6589367        0.713672969        13.36251746  1.435497e-05  9.097132e-06  8.844484e-04
        88      pv         22.6589367        10.32367297        13.36251746  1.435497e-05  9.097135e-06  8.844484e-04
        89      pv         22.6589367        19.93367297        13.36251746  1.435497e-05  9.097132e-06  8.844484e-04
        90      pv        6.014938892       0.7136724649        17.24154489  1.885348e-05  8.073807e-06 -8.785364e-04
        91      pv        6.014938892        10.32367246        17.24154489  1.885348e-05  8.073812e-06 -8.785364e-04
        92      pv        6.014938892        19.93367246        17.24154489  1.885348e-05  8.073807e-06 -8.785364e-04
        93      pv        22.65893889       0.7136724649        17.24154489  1.885348e-05  8.073807e-06 -8.785364e-04
        94      pv        22.65893889        10.32367246        17.24154489  1.885348e-05  8.073812e-06 -8.785364e-04
        95      pv        22.65893889        19.93367246        17.24154489  1.885348e-05  8.073807e-06 -8.785364e-04
        96      pv        7.371216583        3.133487538        8.990681272  5.230134e-04 -3.274830e-04  1.182245e-03
        97      pv        7.371216583        12.74348754        8.990681272  5.230134e-04 -3.274830e-04  1.182245e-03
        98      pv        7.371216583        22.35348754        8.990681272  5.230134e-04 -3.274830e-04  1.182245e-03
        99      pv        24.01521659        3.133487538        8.990681272  5.230134e-04 -3.274830e-04  1.182245e-03
       100      pv        24.01521659        12.74348754        8.990681272  5.230134e-04 -3.274830e-04  1.182245e-03
       101      pv        24.01521659        22.35348754        8.990681272  5.230134e-04 -3.274830e-04  1.182245e-03
       102      pv        7.370665419        3.133698607        12.86969814 -4.775612e-04  5.539715e-05 -5.998792e-04
       103      pv        7.370665419        12.74369861        12.86969814 -4.775612e-04  5.539715e-05 -5.998792e-04
       104      pv        7.370665419        22.35369861        12.86969814 -4.775612e-04  5.539715e-05 -5.998792e-04
       105      pv        24.01466542        3.133698607        12.86969814 -4.775612e-04  5.539715e-05 -5.998792e-04
       106      pv        24.01466542        12.74369861        12.86969814 -4.775612e-04  5.539715e-05 -5.998792e-04
       107      pv        24.01466542        22.35369861        12.86969814 -4.775612e-04  5.539715e-05 -5.998792e-04
       108      pv        6.014922698       0.7136746696        10.68355258 -1.116388e-05  1.208865e-05 -8.643019e-04
       109      pv        6.014922698        10.32367467        10.68355258 -1.116388e-05  1.208866e-05 -8.643019e-04
       110      pv        6.014922698        19.93367467        10.68355258 -1.116388e-05  1.208865e-05 -8.643019e-04
       111      pv         22.6589227       0.7136746696        10.68355258 -1.116388e-05  1.208865e-05 -8.643019e-04
       112      pv         22.6589227        10.32367467        10.68355258 -1.116388e-05  1.208866e-05 -8.643019e-04
       113      pv         22.6589227        19.93367467        10.68355258 -1.116388e-05  1.208865e-05 -8.643019e-04
       114      pv        6.014926534       0.7136695053        6.804504484 -3.646695e-06  2.732220e-06  8.615547e-04
       115      pv        6.014926534         10.3236695        6.804504484 -3.646696e-06  2.732225e-06  8.615547e-04
       116      pv        6.014926534         19.9336695        6.804504484 -3.646695e-06  2.732220e-06  8.615547e-04
       117      pv        22.65892654       0.7136695053        6.804504484 -3.646697e-06  2.732220e-06  8.615547e-04
       118      pv        22.65892654         10.3236695        6.804504484 -3.646698e-06  2.732225e-06  8.615547e-04
       119      pv        22.65892654         19.9336695        6.804504484 -3.646697e-06  2.732220e-06  8.615547e-04
       120      pv        4.659923981        -1.70633063        17.73451079 -8.488501e-06  2.059537e-06  8.729893e-04
       121      pv        4.659923981         7.90366937        17.73451079 -8.488501e-06  2.059537e-06  8.729893e-04
       122      pv        4.659923981        17.51366937        17.73451079 -8.488501e-06  2.059538e-06  8.729893e-04
       123      pv        21.30392398        -1.70633063        17.73451079 -8.488501e-06  2.059537e-06  8.729893e-04
       124      pv        21.30392398         7.90366937        17.73451079 -8.488501e-06  2.059537e-06  8.729893e-04
       125      pv        21.30392398        17.51366937        17.73451079 -8.488501e-06  2.059538e-06  8.729893e-04
       126      pv        4.659925724       -1.706340484        8.497549237 -5.285307e-06 -1.582993e-05 -8.707860e-04
       127      pv        4.659925724        7.903659516        8.497549237 -5.285307e-06 -1.582993e-05 -8.707860e-04
       128      pv        4.659925724        17.51365951        8.497549237 -5.285307e-06 -1.582993e-05 -8.707860e-04
       129      pv        21.30392573       -1.706340484        8.497549237 -5.285308e-06 -1.582993e-05 -8.707860e-04
       130      pv        21.30392573        7.903659516        8.497549237 -5.285307e-06 -1.582993e-05 -8.707860e-04
       131      pv        21.30392573        17.51365951        8.497549237 -5.285308e-06 -1.582993e-05 -8.707860e-04
       132      pv        3.241927183       0.6776682434        19.42755194 -2.615559e-06  7.277590e-08 -8.653586e-04
       133      pv        3.241927183        10.28766824        19.42755194 -2.615558e-06  7.277913e-08 -8.653586e-04
       134      pv        3.241927183        19.89766824        19.42755194 -2.615559e-06  7.277613e-08 -8.653586e-04
       135      pv        19.88592718       0.6776682434        19.42755194 -2.615559e-06  7.277589e-08 -8.653586e-04
       136      pv        19.88592718        10.28766824        19.42755194 -2.615558e-06  7.277912e-08 -8.653586e-04
       137      pv        19.88592718        19.89766824        19.42755194 -2.615559e-06  7.277612e-08 -8.653586e-04
       138      pv        3.241925494       0.6776684777        15.54850865 -5.707377e-06  4.968678e-07  8.690348e-04
       139      pv        3.241925494        10.28766848        15.54850865 -5.707378e-06  4.968727e-07  8.690348e-04
       140      pv        3.241925494        19.89766848        15.54850865 -5.707377e-06  4.968680e-07  8.690348e-04
       141      pv         19.8859255       0.6776684777        15.54850865 -5.707377e-06  4.968678e-07  8.690348e-04
       142      pv         19.8859255        10.28766848        15.54850865 -5.707378e-06  4.968726e-07  8.690348e-04
       143      pv         19.8859255        19.89766848        15.54850865 -5.707377e-06  4.968680e-07  8.690348e-04
       144      pv         1.88592598        -1.74232917        13.36251038 -4.866910e-06  4.772837e-06  8.720671e-04
       145      pv         1.88592598         7.86767083        13.36251038 -4.866910e-06  4.772837e-06  8.720671e-04
       146      pv         1.88592598        17.47767083        13.36251038 -4.866910e-06  4.772838e-06  8.720671e-04
       147      pv        18.52992598        -1.74232917        13.36251038 -4.866910e-06  4.772837e-06  8.720671e-04
       148      pv        18.52992598         7.86767083        13.36251038 -4.866910e-06  4.772837e-06  8.720671e-04
       149      pv        18.52992598        17.47767083        13.36251038 -4.866910e-06  4.772838e-06  8.720671e-04
       150      pv        1.885927806       -1.742337179        17.24154823 -1.506308e-06 -9.803335e-06 -8.721861e-04
       151      pv        1.885927806        7.867662821        17.24154823 -1.506308e-06 -9.803336e-06 -8.721861e-04
       152      pv        1.885927806        17.47766282        17.24154823 -1.506308e-06 -9.803335e-06 -8.721861e-04
       153      pv        18.52992781       -1.742337179        17.24154823 -1.506308e-06 -9.803335e-06 -8.721861e-04
       154      pv        18.52992781        7.867662821        17.24154823 -1.506308e-06 -9.803336e-06 -8.721861e-04
       155      pv        18.52992781        17.47766282        17.24154823 -1.506308e-06 -9.803335e-06 -8.721861e-04
       156      pv        4.659925236       -1.706338102         15.0555451 -6.237503e-06 -1.148290e-05 -8.779311e-04
       157      pv        4.659925236        7.903661898         15.0555451 -6.237503e-06 -1.148290e-05 -8.779311e-04
       158      pv        4.659925236         17.5136619         15.0555451 -6.237503e-06 -1.148290e-05 -8.779311e-04
       159      pv        21.30392524       -1.706338102         15.0555451 -6.237504e-06 -1.148290e-05 -8.779311e-04
       160      pv        21.30392524        7.903661898         15.0555451 -6.237503e-06 -1.148290e-05 -8.779311e-04
       161      pv        21.30392524         17.5136619         15.0555451 -6.237504e-06 -1.148290e-05 -8.779311e-04
       162      pv        4.659926252       -1.706336371        11.17651068 -4.334780e-06 -8.301669e-06  8.725217e-04
       163      pv        4.659926252        7.903663629        11.17651068 -4.334780e-06 -8.301670e-06  8.725217e-04
       164      pv        4.659926252        17.51366363        11.17651068 -4.334780e-06 -8.301669e-06  8.725217e-04
       165      pv        21.30392625       -1.706336371        11.17651068 -4.334780e-06 -8.301669e-06  8.725217e-04
       166      pv        21.30392625        7.903663629        11.17651068 -4.334781e-06 -8.301670e-06  8.725217e-04
       167      pv        21.30392625        17.51366363        11.17651068 -4.334780e-06 -8.301669e-06  8.725217e-04
       168      pv        3.241928008       0.6776670756        8.990511693 -1.109554e-06 -2.031839e-06  8.742296e-04
       169      pv        3.241928008        10.28766707        8.990511693 -1.109554e-06 -2.031836e-06  8.742296e-04
       170      pv        3.241928008        19.89766707        8.990511693 -1.109554e-06 -2.031839e-06  8.742296e-04
       171      pv        19.88592801       0.6776670756        8.990511693 -1.109554e-06 -2.031839e-06  8.742296e-04
       172      pv        19.88592801        10.28766707        8.990511693 -1.109555e-06 -2.031836e-06  8.742296e-04
       173      pv        19.88592801        19.89766707        8.990511693 -1.109554e-06 -2.031839e-06  8.742296e-04
       174      pv        3.241927811       0.6776678572        12.86954982 -1.490154e-06 -6.274124e-07 -8.695010e-04
       175      pv        3.241927811        10.28766786        12.86954982 -1.490154e-06 -6.274075e-07 -8.695010e-04
       176      pv        3.241927811        19.89766786        12.86954982 -1.490154e-06 -6.274122e-07 -8.695010e-04
       177      pv        19.88592781       0.6776678572        12.86954982 -1.490155e-06 -6.274124e-07 -8.695010e-04
       178      pv        19.88592781        10.28766786        12.86954982 -1.490154e-06 -6.274075e-07 -8.695010e-04
       179      pv        19.88592781        19.89766786        12.86954982 -1.490155e-06 -6.274122e-07 -8.695010e-04
       180      pv        1.885924738       -1.742335992        10.68354872 -7.121352e-06 -7.622597e-06 -8.715975e-04
       181      pv        1.885924738        7.867664008        10.68354872 -7.121352e-06 -7.622598e-06 -8.715975e-04
       182      pv        1.885924738        17.47766401        10.68354872 -7.121352e-06 -7.622597e-06 -8.715975e-04
       183      pv        18.52992474       -1.742335992        10.68354872 -7.121352e-06 -7.622597e-06 -8.715975e-04
       184      pv        18.52992474        7.867664008        10.68354872 -7.121352e-06 -7.622598e-06 -8.715975e-04
       185      pv        18.52992474        17.47766401        10.68354872 -7.121352e-06 -7.622597e-06 -8.715975e-04
       186      pv        1.885927797       -1.742330652        6.804511725 -1.531045e-06  2.134180e-06  8.741925e-04
       187      pv        1.885927797        7.867669348        6.804511725 -1.531046e-06  2.134179e-06  8.741925e-04
       188      pv        1.885927797        17.47766935        6.804511725 -1.531045e-06  2.134180e-06  8.741925e-04
       189      pv         18.5299278       -1.742330652        6.804511725 -1.531045e-06  2.134180e-06  8.741925e-04
       190      pv         18.5299278        7.867669348        6.804511725 -1.531046e-06  2.134179e-06  8.741925e-04
       191      pv         18.5299278        17.47766935        6.804511725 -1.531045e-06  2.134180e-06  8.741925e-04
       192      pv       0.5295752247       -4.162254735        17.73447891 -6.412397e-04  1.396019e-04  8.153332e-04
       193      pv       0.5295752247        5.447745265        17.73447891 -6.412397e-04  1.396019e-04  8.153332e-04
       194      pv       0.5295752247        15.05774526        17.73447891 -6.412397e-04  1.396019e-04  8.153332e-04
       195      pv        17.17357523       -4.162254735        17.73447891 -6.412397e-04  1.396019e-04  8.153332e-04
       196      pv        17.17357523        5.447745265        17.73447891 -6.412397e-04  1.396019e-04  8.153332e-04
       197      pv        17.17357523        15.05774526        17.73447891 -6.412397e-04  1.396019e-04  8.153332e-04
       198      pv       0.5298150459       -4.162375915        8.497505342 -2.059506e-04 -7.996164e-05 -9.504606e-04
       199      pv       0.5298150459        5.447624085        8.497505342 -2.059506e-04 -7.996164e-05 -9.504606e-04
       200      pv       0.5298150459        15.05762408        8.497505342 -2.059506e-04 -7.996164e-05 -9.504606e-04
       201      pv        17.17381505       -4.162375915        8.497505342 -2.059506e-04 -7.996164e-05 -9.504606e-04
       202      pv        17.17381505        5.447624085        8.497505342 -2.059506e-04 -7.996164e-05 -9.504606e-04
       203      pv        17.17381505        15.05762408        8.497505342 -2.059506e-04 -7.996164e-05 -9.504606e-04
       204      pv      -0.8880738094       -1.778335638        19.42755199 -4.488277e-06 -6.979486e-06 -8.652745e-04
       205      pv      -0.8880738094        7.831664362        19.42755199 -4.488277e-06 -6.979487e-06 -8.652745e-04
       206      pv      -0.8880738094        17.44166436        19.42755199 -4.488277e-06 -6.979485e-06 -8.652745e-04
       207      pv        15.75592619       -1.778335638        19.42755199 -4.488277e-06 -6.979486e-06 -8.652745e-04
       208      pv        15.75592619        7.831664362        19.42755199 -4.488277e-06 -6.979487e-06 -8.652745e-04
       209      pv        15.75592619        17.44166436        19.42755199 -4.488277e-06 -6.979485e-06 -8.652745e-04
       210      pv      -0.8880727124       -1.778327998        15.54850977 -2.456258e-06  6.948223e-06  8.710564e-04
       211      pv      -0.8880727124        7.831672002        15.54850977 -2.456259e-06  6.948222e-06  8.710564e-04
       212      pv      -0.8880727124          17.441672        15.54850977 -2.456258e-06  6.948224e-06  8.710564e-04
       213      pv        15.75592729       -1.778327998        15.54850977 -2.456258e-06  6.948223e-06  8.710564e-04
       214      pv        15.75592729        7.831672002        15.54850977 -2.456259e-06  6.948222e-06  8.710564e-04
       215      pv        15.75592729          17.441672        15.54850977 -2.456258e-06  6.948224e-06  8.710564e-04
       216      pv        -2.24442623       -4.198254347        13.36247687 -6.438665e-04  1.403009e-04  8.114329e-04
       217      pv        -2.24442623        5.411745653        13.36247687 -6.438666e-04  1.403009e-04  8.114329e-04
       218      pv        -2.24442623        15.02174565        13.36247687 -6.438666e-04  1.403009e-04  8.114329e-04
       219      pv        14.39957377       -4.198254347        13.36247687 -6.438665e-04  1.403009e-04  8.114329e-04
       220      pv        14.39957377        5.411745653        13.36247687 -6.438666e-04  1.403009e-04  8.114329e-04
       221      pv        14.39957377        15.02174565        13.36247687 -6.438666e-04  1.403009e-04  8.114329e-04
       222      pv       -2.244183816       -4.198374967        17.24150637 -2.038938e-04 -7.824120e-05 -9.481835e-04
       223      pv       -2.244183816        5.411625033        17.24150637 -2.038938e-04 -7.824120e-05 -9.481835e-04
       224      pv       -2.244183816        15.02162503        17.24150637 -2.038938e-04 -7.824120e-05 -9.481835e-04
       225      pv        14.39981619       -4.198374967        17.24150637 -2.038938e-04 -7.824120e-05 -9.481835e-04
       226      pv        14.39981619        5.411625033        17.24150637 -2.038938e-04 -7.824120e-05 -9.481835e-04
       227      pv        14.39981619        15.02162503        17.24150637 -2.038938e-04 -7.824120e-05 -9.481835e-04
       228      pv       0.5295552817       -4.162348633        15.05562012 -6.773290e-04 -3.069285e-05 -7.420233e-04
       229      pv       0.5295552817        5.447651367        15.05562012 -6.773290e-04 -3.069285e-05 -7.420233e-04
       230      pv       0.5295552817        15.05765137        15.05562012 -6.773290e-04 -3.069285e-05 -7.420233e-04
       231      pv        17.17355528       -4.162348633        15.05562012 -6.773290e-04 -3.069285e-05 -7.420233e-04
       232      pv        17.17355528        5.447651367        15.05562012 -6.773290e-04 -3.069285e-05 -7.420233e-04
       233      pv        17.17355528        15.05765137        15.05562012 -6.773290e-04 -3.069285e-05 -7.420233e-04
       234      pv        0.529820091       -4.162281803        11.17653683 -1.967641e-04  9.056391e-05  9.197302e-04
       235      pv        0.529820091        5.447718197        11.17653683 -1.967641e-04  9.056392e-05  9.197302e-04
       236      pv        0.529820091         15.0577182        11.17653683 -1.967641e-04  9.056392e-05  9.197302e-04
       237      pv        17.17382009       -4.162281803        11.17653683 -1.967641e-04  9.056391e-05  9.197302e-04
       238      pv        17.17382009        5.447718197        11.17653683 -1.967641e-04  9.056392e-05  9.197302e-04
       239      pv        17.17382009         15.0577182        11.17653683 -1.967641e-04  9.056392e-05  9.197302e-04
       240      pv      -0.8880742178       -1.778328967        8.990510511 -5.224498e-06  5.140525e-06  8.720760e-04
       241      pv      -0.8880742178        7.831671033        8.990510511 -5.224499e-06  5.140525e-06  8.720760e-04
       242      pv      -0.8880742178        17.44167103        8.990510511 -5.224499e-06  5.140526e-06  8.720760e-04
       243      pv        15.75592578       -1.778328967        8.990510511 -5.224499e-06  5.140525e-06  8.720760e-04