<OpenMD version=2>
  <MetaData>

molecule{
  name = "Cu_FQ";

  atom[0]{
    type="Cu_FQ";
    position( 0.0, 0.0, 0.0 );
  }
}
molecule{
  name = "NPC";

  atom[0]{
    type="NPC";
    position( 0.0, 0.0, 0.0 );
  }
}

component{
  type = "Cu_FQ";
  nMol = 1800;
}

component{
  type = "NPC";
  nMol = 1;
}

minimizer {
  useMinimizer = False;
  method = CG;
  maxIterations = 5000;
}


flucQ {
  propagator = "Langevin";
  targetTemp = 1;
  dragCoefficient = 1.5;
}

forceField = "DR-EAM";
outputFluctuatingCharges = true;
outputElectricField = true;
outputDensity = true;
ensemble = NVE;
dt = 0.1;
runTime = 1000;
sampleTime =10;
statusTime = 1;

cutoffMethod = "shifted_force";
cutoffRadius = 12;
electrostaticScreeningMethod = "DAMPED";
statFileFormat = "TIME|TOTAL_ENERGY|POTENTIAL_ENERGY|KINETIC_ENERGY|TEMPERATURE|PRESSURE|VOLUME|CONSERVED_QUANTITY|SYSTEM_DIPOLE|ELECTRONIC_TEMPERATURE";
dampingAlpha = 0.14;
useSurfaceTerm = "false";
targetTemp = 100;
tauThermostat = 1000;
tauBarostat = 1e6;
uniformField = (0,0,0);
tempSet = "false";
useInitialTime = "false";
useInitialExtendedSystemState = "false";

  </MetaData>
  <Snapshot>
    <FrameData>
      Time: 0
      Hmat: {{ 26.432444, 0.000000, 0.000000 }, { 0.000000, 25.434631, 0.000000 }, { 0.000000, 0.000000, 500 }}
     Thermostat: 0.0, 0.0
     Barostat: {{ 0, 0, 0 }, { 0, 0, 0 }, { 0, 0, 0 }}
    </FrameData>
    <StuntDoubles>
	0	pv	-11.380636	-10.809718	-14.537102	0.0	0.0	0.0
	1	pv	-9.177932	-12.081450	-14.537102	0.0	0.0	0.0
	2	pv	-12.114870	-12.081450	-12.460374	0.0	0.0	0.0
	3	pv	-11.380636	-8.266255	-14.537102	0.0	0.0	0.0
	4	pv	-11.380636	-5.722792	-14.537102	0.0	0.0	0.0
	5	pv	-9.177932	-6.994524	-14.537102	0.0	0.0	0.0
	6	pv	-12.114870	-6.994524	-12.460374	0.0	0.0	0.0
	7	pv	-6.975228	-10.809718	-14.537102	0.0	0.0	0.0
	8	pv	-6.975228	-8.266255	-14.537102	0.0	0.0	0.0
	9	pv	-4.772525	-9.537987	-14.537102	0.0	0.0	0.0
	10	pv	-9.177932	-9.537987	-14.537102	0.0	0.0	0.0
	11	pv	-9.912166	-10.809718	-12.460374	0.0	0.0	0.0
	12	pv	-9.912166	-8.266255	-12.460374	0.0	0.0	0.0
	13	pv	-7.709463	-9.537987	-12.460374	0.0	0.0	0.0
	14	pv	-12.114870	-9.537987	-12.460374	0.0	0.0	0.0
	15	pv	-12.849105	-10.809718	-10.383645	0.0	0.0	0.0
	16	pv	-12.849105	-8.266255	-10.383645	0.0	0.0	0.0
	17	pv	-10.646401	-9.537987	-10.383645	0.0	0.0	0.0
	18	pv	-2.569821	-10.809718	-14.537102	0.0	0.0	0.0
	19	pv	-0.367117	-12.081450	-14.537102	0.0	0.0	0.0
	20	pv	-4.772525	-12.081450	-14.537102	0.0	0.0	0.0
	21	pv	-5.506759	-10.809718	-12.460374	0.0	0.0	0.0
	22	pv	-3.304055	-12.081450	-12.460374	0.0	0.0	0.0
	23	pv	-7.709463	-12.081450	-12.460374	0.0	0.0	0.0
	24	pv	-8.443697	-10.809718	-10.383645	0.0	0.0	0.0
	25	pv	-6.240994	-12.081450	-10.383645	0.0	0.0	0.0
	26	pv	-10.646401	-12.081450	-10.383645	0.0	0.0	0.0
	27	pv	-11.380636	-10.809718	-8.306916	0.0	0.0	0.0
	28	pv	-9.177932	-12.081450	-8.306916	0.0	0.0	0.0
	29	pv	-12.114870	-12.081450	-6.230187	0.0	0.0	0.0
	30	pv	-11.380636	-3.179329	-14.537102	0.0	0.0	0.0
	31	pv	-11.380636	-0.635866	-14.537102	0.0	0.0	0.0
	32	pv	-9.177932	-1.907597	-14.537102	0.0	0.0	0.0
	33	pv	-12.114870	-1.907597	-12.460374	0.0	0.0	0.0
	34	pv	-6.975228	-5.722792	-14.537102	0.0	0.0	0.0
	35	pv	-6.975228	-3.179329	-14.537102	0.0	0.0	0.0
	36	pv	-4.772525	-4.451060	-14.537102	0.0	0.0	0.0
	37	pv	-9.177932	-4.451060	-14.537102	0.0	0.0	0.0
	38	pv	-9.912166	-5.722792	-12.460374	0.0	0.0	0.0
	39	pv	-9.912166	-3.179329	-12.460374	0.0	0.0	0.0
	40	pv	-7.709463	-4.451060	-12.460374	0.0	0.0	0.0
	41	pv	-12.114870	-4.451060	-12.460374	0.0	0.0	0.0
	42	pv	-12.849105	-5.722792	-10.383645	0.0	0.0	0.0
	43	pv	-12.849105	-3.179329	-10.383645	0.0	0.0	0.0
	44	pv	-10.646401	-4.451060	-10.383645	0.0	0.0	0.0
	45	pv	-2.569821	-8.266255	-14.537102	0.0	0.0	0.0
	46	pv	-2.569821	-5.722792	-14.537102	0.0	0.0	0.0
	47	pv	-0.367117	-6.994524	-14.537102	0.0	0.0	0.0
	48	pv	-4.772525	-6.994524	-14.537102	0.0	0.0	0.0
	49	pv	-5.506759	-8.266255	-12.460374	0.0	0.0	0.0
	50	pv	-5.506759	-5.722792	-12.460374	0.0	0.0	0.0
	51	pv	-3.304055	-6.994524	-12.460374	0.0	0.0	0.0
	52	pv	-7.709463	-6.994524	-12.460374	0.0	0.0	0.0
	53	pv	-8.443697	-8.266255	-10.383645	0.0	0.0	0.0
	54	pv	-8.443697	-5.722792	-10.383645	0.0	0.0	0.0
	55	pv	-6.240994	-6.994524	-10.383645	0.0	0.0	0.0
	56	pv	-10.646401	-6.994524	-10.383645	0.0	0.0	0.0
	57	pv	-11.380636	-8.266255	-8.306916	0.0	0.0	0.0
	58	pv	-11.380636	-5.722792	-8.306916	0.0	0.0	0.0
	59	pv	-9.177932	-6.994524	-8.306916	0.0	0.0	0.0
	60	pv	-12.114870	-6.994524	-6.230187	0.0	0.0	0.0
	61	pv	1.835586	-10.809718	-14.537102	0.0	0.0	0.0
	62	pv	1.835586	-8.266255	-14.537102	0.0	0.0	0.0
	63	pv	4.038290	-9.537987	-14.537102	0.0	0.0	0.0
	64	pv	-0.367117	-9.537987	-14.537102	0.0	0.0	0.0
	65	pv	-1.101352	-10.809718	-12.460374	0.0	0.0	0.0
	66	pv	-1.101352	-8.266255	-12.460374	0.0	0.0	0.0
	67	pv	1.101352	-9.537987	-12.460374	0.0	0.0	0.0
	68	pv	-3.304055	-9.537987	-12.460374	0.0	0.0	0.0
	69	pv	-4.038290	-10.809718	-10.383645	0.0	0.0	0.0
	70	pv	-4.038290	-8.266255	-10.383645	0.0	0.0	0.0
	71	pv	-1.835586	-9.537987	-10.383645	0.0	0.0	0.0
	72	pv	-6.240994	-9.537987	-10.383645	0.0	0.0	0.0
	73	pv	-6.975228	-10.809718	-8.306916	0.0	0.0	0.0
	74	pv	-6.975228	-8.266255	-8.306916	0.0	0.0	0.0
	75	pv	-4.772525	-9.537987	-8.306916	0.0	0.0	0.0
	76	pv	-9.177932	-9.537987	-8.306916	0.0	0.0	0.0
	77	pv	-9.912166	-10.809718	-6.230187	0.0	0.0	0.0
	78	pv	-9.912166	-8.266255	-6.230187	0.0	0.0	0.0
	79	pv	-7.709463	-9.537987	-6.230187	0.0	0.0	0.0
	80	pv	-12.114870	-9.537987	-6.230187	0.0	0.0	0.0
	81	pv	-12.849105	-10.809718	-4.153458	0.0	0.0	0.0
	82	pv	-12.849105	-8.266255	-4.153458	0.0	0.0	0.0
	83	pv	-10.646401	-9.537987	-4.153458	0.0	0.0	0.0
	84	pv	6.240994	-10.809718	-14.537102	0.0	0.0	0.0
	85	pv	8.443697	-12.081450	-14.537102	0.0	0.0	0.0
	86	pv	4.038290	-12.081450	-14.537102	0.0	0.0	0.0
	87	pv	3.304055	-10.809718	-12.460374	0.0	0.0	0.0
	88	pv	5.506759	-12.081450	-12.460374	0.0	0.0	0.0
	89	pv	1.101352	-12.081450	-12.460374	0.0	0.0	0.0
	90	pv	0.367117	-10.809718	-10.383645	0.0	0.0	0.0
	91	pv	2.569821	-12.081450	-10.383645	0.0	0.0	0.0
	92	pv	-1.835586	-12.081450	-10.383645	0.0	0.0	0.0
	93	pv	-2.569821	-10.809718	-8.306916	0.0	0.0	0.0
	94	pv	-0.367117	-12.081450	-8.306916	0.0	0.0	0.0
	95	pv	-4.772525	-12.081450	-8.306916	0.0	0.0	0.0
	96	pv	-5.506759	-10.809718	-6.230187	0.0	0.0	0.0
	97	pv	-3.304055	-12.081450	-6.230187	0.0	0.0	0.0
	98	pv	-7.709463	-12.081450	-6.230187	0.0	0.0	0.0
	99	pv	-8.443697	-10.809718	-4.153458	0.0	0.0	0.0
	100	pv	-6.240994	-12.081450	-4.153458	0.0	0.0	0.0
	101	pv	-10.646401	-12.081450	-4.153458	0.0	0.0	0.0
	102	pv	-11.380636	-10.809718	-2.076729	0.0	0.0	0.0
	103	pv	-9.177932	-12.081450	-2.076729	0.0	0.0	0.0
	104	pv	-12.114870	-12.081450	0.000000	0.0	0.0	0.0
	105	pv	-11.380636	1.907597	-14.537102	0.0	0.0	0.0
	106	pv	-11.380636	4.451060	-14.537102	0.0	0.0	0.0
	107	pv	-9.177932	3.179329	-14.537102	0.0	0.0	0.0
	108	pv	-12.114870	3.179329	-12.460374	0.0	0.0	0.0
	109	pv	-6.975228	-0.635866	-14.537102	0.0	0.0	0.0
	110	pv	-6.975228	1.907597	-14.537102	0.0	0.0	0.0
	111	pv	-4.772525	0.635866	-14.537102	0.0	0.0	0.0
	112	pv	-9.177932	0.635866	-14.537102	0.0	0.0	0.0
	113	pv	-9.912166	-0.635866	-12.460374	0.0	0.0	0.0
	114	pv	-9.912166	1.907597	-12.460374	0.0	0.0	0.0
	115	pv	-7.709463	0.635866	-12.460374	0.0	0.0	0.0
	116	pv	-12.114870	0.635866	-12.460374	0.0	0.0	0.0
	117	pv	-12.849105	-0.635866	-10.383645	0.0	0.0	0.0
	118	pv	-12.849105	1.907597	-10.383645	0.0	0.0	0.0
	119	pv	-10.646401	0.635866	-10.383645	0.0	0.0	0.0
	120	pv	-2.569821	-3.179329	-14.537102	0.0	0.0	0.0
	121	pv	-2.569821	-0.635866	-14.537102	0.0	0.0	0.0
	122	pv	-0.367117	-1.907597	-14.537102	0.0	0.0	0.0
	123	pv	-4.772525	-1.907597	-14.537102	0.0	0.0	0.0
	124	pv	-5.506759	-3.179329	-12.460374	0.0	0.0	0.0
	125	pv	-5.506759	-0.635866	-12.460374	0.0	0.0	0.0
	126	pv	-3.304055	-1.907597	-12.460374	0.0	0.0	0.0
	127	pv	-7.709463	-1.907597	-12.460374	0.0	0.0	0.0
	128	pv	-8.443697	-3.179329	-10.383645	0.0	0.0	0.0
	129	pv	-8.443697	-0.635866	-10.383645	0.0	0.0	0.0
	130	pv	-6.240994	-1.907597	-10.383645	0.0	0.0	0.0
	131	pv	-10.646401	-1.907597	-10.383645	0.0	0.0	0.0
	132	pv	-11.380636	-3.179329	-8.306916	0.0	0.0	0.0
	133	pv	-11.380636	-0.635866	-8.306916	0.0	0.0	0.0
	134	pv	-9.177932	-1.907597	-8.306916	0.0	0.0	0.0
	135	pv	-12.114870	-1.907597	-6.230187	0.0	0.0	0.0
	136	pv	1.835586	-5.722792	-14.537102	0.0	0.0	0.0
	137	pv	1.835586	-3.179329	-14.537102	0.0	0.0	0.0
	138	pv	4.038290	-4.451060	-14.537102	0.0	0.0	0.0
	139	pv	-0.367117	-4.451060	-14.537102	0.0	0.0	0.0
	140	pv	-1.101352	-5.722792	-12.460374	0.0	0.0	0.0
	141	pv	-1.101352	-3.179329	-12.460374	0.0	0.0	0.0
	142	pv	1.101352	-4.451060	-12.460374	0.0	0.0	0.0
	143	pv	-3.304055	-4.451060	-12.460374	0.0	0.0	0.0
	144	pv	-4.038290	-5.722792	-10.383645	0.0	0.0	0.0
	145	pv	-4.038290	-3.179329	-10.383645	0.0	0.0	0.0
	146	pv	-1.835586	-4.451060	-10.383645	0.0	0.0	0.0
	147	pv	-6.240994	-4.451060	-10.383645	0.0	0.0	0.0
	148	pv	-6.975228	-5.722792	-8.306916	0.0	0.0	0.0
	149	pv	-6.975228	-3.179329	-8.306916	0.0	0.0	0.0
	150	pv	-4.772525	-4.451060	-8.306916	0.0	0.0	0.0
	151	pv	-9.177932	-4.451060	-8.306916	0.0	0.0	0.0
	152	pv	-9.912166	-5.722792	-6.230187	0.0	0.0	0.0
	153	pv	-9.912166	-3.179329	-6.230187	0.0	0.0	0.0
	154	pv	-7.709463	-4.451060	-6.230187	0.0	0.0	0.0
	155	pv	-12.114870	-4.451060	-6.230187	0.0	0.0	0.0
	156	pv	-12.849105	-5.722792	-4.153458	0.0	0.0	0.0
	157	pv	-12.849105	-3.179329	-4.153458	0.0	0.0	0.0
	158	pv	-10.646401	-4.451060	-4.153458	0.0	0.0	0.0
	159	pv	6.240994	-8.266255	-14.537102	0.0	0.0	0.0
	160	pv	6.240994	-5.722792	-14.537102	0.0	0.0	0.0
	161	pv	8.443697	-6.994524	-14.537102	0.0	0.0	0.0
	162	pv	4.038290	-6.994524	-14.537102	0.0	0.0	0.0
	163	pv	3.304055	-8.266255	-12.460374	0.0	0.0	0.0
	164	pv	3.304055	-5.722792	-12.460374	0.0	0.0	0.0
	165	pv	5.506759	-6.994524	-12.460374	0.0	0.0	0.0
	166	pv	1.101352	-6.994524	-12.460374	0.0	0.0	0.0
	167	pv	0.367117	-8.266255	-10.383645	0.0	0.0	0.0
	168	pv	0.367117	-5.722792	-10.383645	0.0	0.0	0.0
	169	pv	2.569821	-6.994524	-10.383645	0.0	0.0	0.0
	170	pv	-1.835586	-6.994524	-10.383645	0.0	0.0	0.0
	171	pv	-2.569821	-8.266255	-8.306916	0.0	0.0	0.0
	172	pv	-2.569821	-5.722792	-8.306916	0.0	0.0	0.0
	173	pv	-0.367117	-6.994524	-8.306916	0.0	0.0	0.0
	174	pv	-4.772525	-6.994524	-8.306916	0.0	0.0	0.0
	175	pv	-5.506759	-8.266255	-6.230187	0.0	0.0	0.0
	176	pv	-5.506759	-5.722792	-6.230187	0.0	0.0	0.0
	177	pv	-3.304055	-6.994524	-6.230187	0.0	0.0	0.0
	178	pv	-7.709463	-6.994524	-6.230187	0.0	0.0	0.0
	179	pv	-8.443697	-8.266255	-4.153458	0.0	0.0	0.0
	180	pv	-8.443697	-5.722792	-4.153458	0.0	0.0	0.0
	181	pv	-6.240994	-6.994524	-4.153458	0.0	0.0	0.0
	182	pv	-10.646401	-6.994524	-4.153458	0.0	0.0	0.0
	183	pv	-11.380636	-8.266255	-2.076729	0.0	0.0	0.0
	184	pv	-11.380636	-5.722792	-2.076729	0.0	0.0	0.0
	185	pv	-9.177932	-6.994524	-2.076729	0.0	0.0	0.0
	186	pv	-12.114870	-6.994524	0.000000	0.0	0.0	0.0
	187	pv	10.646401	-10.809718	-14.537102	0.0	0.0	0.0
	188	pv	10.646401	-8.266255	-14.537102	0.0	0.0	0.0
	189	pv	12.849105	-9.537987	-14.537102	0.0	0.0	0.0
	190	pv	8.443697	-9.537987	-14.537102	0.0	0.0	0.0
	191	pv	7.709463	-10.809718	-12.460374	0.0	0.0	0.0
	192	pv	7.709463	-8.266255	-12.460374	0.0	0.0	0.0
	193	pv	9.912166	-9.537987	-12.460374	0.0	0.0	0.0
	194	pv	5.506759	-9.537987	-12.460374	0.0	0.0	0.0
	195	pv	4.772525	-10.809718	-10.383645	0.0	0.0	0.0
	196	pv	4.772525	-8.266255	-10.383645	0.0	0.0	0.0
	197	pv	6.975228	-9.537987	-10.383645	0.0	0.0	0.0
	198	pv	2.569821	-9.537987	-10.383645	0.0	0.0	0.0
	199	pv	1.835586	-10.809718	-8.306916	0.0	0.0	0.0
	200	pv	1.835586	-8.266255	-8.306916	0.0	0.0	0.0
	201	pv	4.038290	-9.537987	-8.306916	0.0	0.0	0.0
	202	pv	-0.367117	-9.537987	-8.306916	0.0	0.0	0.0
	203	pv	-1.101352	-10.809718	-6.230187	0.0	0.0	0.0
	204	pv	-1.101352	-8.266255	-6.230187	0.0	0.0	0.0
	205	pv	1.101352	-9.537987	-6.230187	0.0	0.0	0.0
	206	pv	-3.304055	-9.537987	-6.230187	0.0	0.0	0.0
	207	pv	-4.038290	-10.809718	-4.153458	0.0	0.0	0.0
	208	pv	-4.038290	-8.266255	-4.153458	0.0	0.0	0.0
	209	pv	-1.835586	-9.537987	-4.153458	0.0	0.0	0.0
	210	pv	-6.240994	-9.537987	-4.153458	0.0	0.0	0.0
	211	pv	-6.975228	-10.809718	-2.076729	0.0	0.0	0.0
	212	pv	-6.975228	-8.266255	-2.076729	0.0	0.0	0.0
	213	pv	-4.772525	-9.537987	-2.076729	0.0	0.0	0.0
	214	pv	-9.177932	-9.537987	-2.076729	0.0	0.0	0.0
	215	pv	-9.912166	-10.809718	0.000000	0.0	0.0	0.0
	216	pv	-9.912166	-8.266255	0.000000	0.0	0.0	0.0
	217	pv	-7.709463	-9.537987	0.000000	0.0	0.0	0.0
	218	pv	-12.114870	-9.537987	0.000000	0.0	0.0	0.0
	219	pv	-12.849105	-10.809718	2.076729	0.0	0.0	0.0
	220	pv	-12.849105	-8.266255	2.076729	0.0	0.0	0.0
	221	pv	-10.646401	-9.537987	2.076729	0.0	0.0	0.0
	222	pv	12.849105	-12.081450	-14.537102	0.0	0.0	0.0
	223	pv	12.114870	-10.809718	-12.460374	0.0	0.0	0.0
	224	pv	9.912166	-12.081450	-12.460374	0.0	0.0	0.0
	225	pv	9.177932	-10.809718	-10.383645	0.0	0.0	0.0
	226	pv	11.380636	-12.081450	-10.383645	0.0	0.0	0.0
	227	pv	6.975228	-12.081450	-10.383645	0.0	0.0	0.0
	228	pv	6.240994	-10.809718	-8.306916	0.0	0.0	0.0
	229	pv	8.443697	-12.081450	-8.306916	0.0	0.0	0.0
	230	pv	4.038290	-12.081450	-8.306916	0.0	0.0	0.0
	231	pv	3.304055	-10.809718	-6.230187	0.0	0.0	0.0
	232	pv	5.506759	-12.081450	-6.230187	0.0	0.0	0.0
	233	pv	1.101352	-12.081450	-6.230187	0.0	0.0	0.0
	234	pv	0.367117	-10.809718	-4.153458	0.0	0.0	0.0
	235	pv	2.569821	-12.081450	-4.153458	0.0	0.0	0.0
	236	pv	-1.835586	-12.081450	-4.153458	0.0	0.0	0.0
	237	pv	-2.569821	-10.809718	-2.076729	0.0	0.0	0.0
	238	pv	-0.367117	-12.081450	-2.076729	0.0	0.0	0.0
	239	pv	-4.772525	-12.081450	-2.076729	0.0	0.0	0.0
	240	pv	-5.506759	-10.809718	0.000000	0.0	0.0	0.0
	241	pv	-3.304055	-12.081450	0.000000	0.0	0.0	0.0
	242	pv	-7.709463	-12.081450	0.000000	0.0	0.0	0.0
	243	pv	-8.443697	-10.809718	2.076729	0.0	0.0	0.0
	244	pv	-6.240994	-12.081450	2.076729	0.0	0.0	0.0
	245	pv	-10.646401	-12.081450	2.076729	0.0	0.0	0.0
	246	pv	-11.380636	-10.809718	4.153458	0.0	0.0	0.0
	247	pv	-9.177932	-12.081450	4.153458	0.0	0.0	0.0
	248	pv	-12.114870	-12.081450	6.230187	0.0	0.0	0.0
	249	pv	-11.380636	6.994524	-14.537102	0.0	0.0	0.0
	250	pv	-11.380636	9.537987	-14.537102	0.0	0.0	0.0
	251	pv	-9.177932	8.266255	-14.537102	0.0	0.0	0.0
	252	pv	-12.114870	8.266255	-12.460374	0.0	0.0	0.0
	253	pv	-6.975228	4.451060	-14.537102	0.0	0.0	0.0
	254	pv	-6.975228	6.994524	-14.537102	0.0	0.0	0.0
	255	pv	-4.772525	5.722792	-14.537102	0.0	0.0	0.0
	256	pv	-9.177932	5.722792	-14.537102	0.0	0.0	0.0
	257	pv	-9.912166	4.451060	-12.460374	0.0	0.0	0.0
	258	pv	-9.912166	6.994524	-12.460374	0.0	0.0	0.0
	259	pv	-7.709463	5.722792	-12.460374	0.0	0.0	0.0
	260	pv	-12.114870	5.722792	-12.460374	0.0	0.0	0.0
	261	pv	-12.849105	4.451060	-10.383645	0.0	0.0	0.0
	262	pv	-12.849105	6.994524	-10.383645	0.0	0.0	0.0
	263	pv	-10.646401	5.722792	-10.383645	0.0	0.0	0.0
	264	pv	-2.569821	1.907597	-14.537102	0.0	0.0	0.0
	265	pv	-2.569821	4.451060	-14.537102	0.0	0.0	0.0
	266	pv	-0.367117	3.179329	-14.537102	0.0	0.0	0.0
	267	pv	-4.772525	3.179329	-14.537102	0.0	0.0	0.0
	268	pv	-5.506759	1.907597	-12.460374	0.0	0.0	0.0
	269	pv	-5.506759	4.451060	-12.460374	0.0	0.0	0.0
	270	pv	-3.304055	3.179329	-12.460374	0.0	0.0	0.0
	271	pv	-7.709463	3.179329	-12.460374	0.0	0.0	0.0
	272	pv	-8.443697	1.907597	-10.383645	0.0	0.0	0.0
	273	pv	-8.443697	4.451060	-10.383645	0.0	0.0	0.0
	274	pv	-6.240994	3.179329	-10.383645	0.0	0.0	0.0
	275	pv	-10.646401	3.179329	-10.383645	0.0	0.0	0.0
	276	pv	-11.380636	1.907597	-8.306916	0.0	0.0	0.0
	277	pv	-11.380636	4.451060	-8.306916	0.0	0.0	0.0
	278	pv	-9.177932	3.179329	-8.306916	0.0	0.0	0.0
	279	pv	-12.114870	3.179329	-6.230187	0.0	0.0	0.0
	280	pv	1.835586	-0.635866	-14.537102	0.0	0.0	0.0
	281	pv	1.835586	1.907597	-14.537102	0.0	0.0	0.0
	282	pv	4.038290	0.635866	-14.537102	0.0	0.0	0.0
	283	pv	-0.367117	0.635866	-14.537102	0.0	0.0	0.0
	284	pv	-1.101352	-0.635866	-12.460374	0.0	0.0	0.0
	285	pv	-1.101352	1.907597	-12.460374	0.0	0.0	0.0
	286	pv	1.101352	0.635866	-12.460374	0.0	0.0	0.0
	287	pv	-3.304055	0.635866	-12.460374	0.0	0.0	0.0
	288	pv	-4.038290	-0.635866	-10.383645	0.0	0.0	0.0
	289	pv	-4.038290	1.907597	-10.383645	0.0	0.0	0.0
	290	pv	-1.835586	0.635866	-10.383645	0.0	0.0	0.0
	291	pv	-6.240994	0.635866	-10.383645	0.0	0.0	0.0
	292	pv	-6.975228	-0.635866	-8.306916	0.0	0.0	0.0
	293	pv	-6.975228	1.907597	-8.306916	0.0	0.0	0.0
	294	pv	-4.772525	0.635866	-8.306916	0.0	0.0	0.0
	295	pv	-9.177932	0.635866	-8.306916	0.0	0.0	0.0
	296	pv	-9.912166	-0.635866	-6.230187	0.0	0.0	0.0
	297	pv	-9.912166	1.907597	-6.230187	0.0	0.0	0.0
	298	pv	-7.709463	0.635866	-6.230187	0.0	0.0	0.0
	299	pv	-12.114870	0.635866	-6.230187	0.0	0.0	0.0
	300	pv	-12.849105	-0.635866	-4.153458	0.0	0.0	0.0
	301	pv	-12.849105	1.907597	-4.153458	0.0	0.0	0.0
	302	pv	-10.646401	0.635866	-4.153458	0.0	0.0	0.0
	303	pv	6.240994	-3.179329	-14.537102	0.0	0.0	0.0
	304	pv	6.240994	-0.635866	-14.537102	0.0	0.0	0.0
	305	pv	8.443697	-1.907597	-14.537102	0.0	0.0	0.0
	306	pv	4.038290	-1.907597	-14.537102	0.0	0.0	0.0
	307	pv	3.304055	-3.179329	-12.460374	0.0	0.0	0.0
	308	pv	3.304055	-0.635866	-12.460374	0.0	0.0	0.0
	309	pv	5.506759	-1.907597	-12.460374	0.0	0.0	0.0
	310	pv	1.101352	-1.907597	-12.460374	0.0	0.0	0.0
	311	pv	0.367117	-3.179329	-10.383645	0.0	0.0	0.0
	312	pv	0.367117	-0.635866	-10.383645	0.0	0.0	0.0
	313	pv	2.569821	-1.907597	-10.383645	0.0	0.0	0.0
	314	pv	-1.835586	-1.907597	-10.383645	0.0	0.0	0.0
	315	pv	-2.569821	-3.179329	-8.306916	0.0	0.0	0.0
	316	pv	-2.569821	-0.635866	-8.306916	0.0	0.0	0.0
	317	pv	-0.367117	-1.907597	-8.306916	0.0	0.0	0.0
	318	pv	-4.772525	-1.907597	-8.306916	0.0	0.0	0.0
	319	pv	-5.506759	-3.179329	-6.230187	0.0	0.0	0.0
	320	pv	-5.506759	-0.635866	-6.230187	0.0	0.0	0.0
	321	pv	-3.304055	-1.907597	-6.230187	0.0	0.0	0.0
	322	pv	-7.709463	-1.907597	-6.230187	0.0	0.0	0.0
	323	pv	-8.443697	-3.179329	-4.153458	0.0	0.0	0.0
	324	pv	-8.443697	-0.635866	-4.153458	0.0	0.0	0.0
	325	pv	-6.240994	-1.907597	-4.153458	0.0	0.0	0.0
	326	pv	-10.646401	-1.907597	-4.153458	0.0	0.0	0.0
	327	pv	-11.380636	-3.179329	-2.076729	0.0	0.0	0.0
	328	pv	-11.380636	-0.635866	-2.076729	0.0	0.0	0.0
	329	pv	-9.177932	-1.907597	-2.076729	0.0	0.0	0.0
	330	pv	-12.114870	-1.907597	0.000000	0.0	0.0	0.0
	331	pv	10.646401	-5.722792	-14.537102	0.0	0.0	0.0
	332	pv	10.646401	-3.179329	-14.537102	0.0	0.0	0.0
	333	pv	12.849105	-4.451060	-14.537102	0.0	0.0	0.0
	334	pv	8.443697	-4.451060	-14.537102	0.0	0.0	0.0
	335	pv	7.709463	-5.722792	-12.460374	0.0	0.0	0.0
	336	pv	7.709463	-3.179329	-12.460374	0.0	0.0	0.0
	337	pv	9.912166	-4.451060	-12.460374	0.0	0.0	0.0
	338	pv	5.506759	-4.451060	-12.460374	0.0	0.0	0.0
	339	pv	4.772525	-5.722792	-10.383645	0.0	0.0	0.0
	340	pv	4.772525	-3.179329	-10.383645	0.0	0.0	0.0
	341	pv	6.975228	-4.451060	-10.383645	0.0	0.0	0.0
	342	pv	2.569821	-4.451060	-10.383645	0.0	0.0	0.0
	343	pv	1.835586	-5.722792	-8.306916	0.0	0.0	0.0
	344	pv	1.835586	-3.179329	-8.306916	0.0	0.0	0.0
	345	pv	4.038290	-4.451060	-8.306916	0.0	0.0	0.0
	346	pv	-0.367117	-4.451060	-8.306916	0.0	0.0	0.0
	347	pv	-1.101352	-5.722792	-6.230187	0.0	0.0	0.0
	348	pv	-1.101352	-3.179329	-6.230187	0.0	0.0	0.0
	349	pv	1.101352	-4.451060	-6.230187	0.0	0.0	0.0
	350	pv	-3.304055	-4.451060	-6.230187	0.0	0.0	0.0
	351	pv	-4.038290	-5.722792	-4.153458	0.0	0.0	0.0
	352	pv	-4.038290	-3.179329	-4.153458	0.0	0.0	0.0
	353	pv	-1.835586	-4.451060	-4.153458	0.0	0.0	0.0
	354	pv	-6.240994	-4.451060	-4.153458	0.0	0.0	0.0
	355	pv	-6.975228	-5.722792	-2.076729	0.0	0.0	0.0
	356	pv	-6.975228	-3.179329	-2.076729	0.0	0.0	0.0
	357	pv	-4.772525	-4.451060	-2.076729	0.0	0.0	0.0
	358	pv	-9.177932	-4.451060	-2.076729	0.0	0.0	0.0
	359	pv	-9.912166	-5.722792	0.000000	0.0	0.0	0.0
	360	pv	-9.912166	-3.179329	0.000000	0.0	0.0	0.0
	361	pv	-7.709463	-4.451060	0.000000	0.0	0.0	0.0
	362	pv	-12.114870	-4.451060	0.000000	0.0	0.0	0.0
	363	pv	-12.849105	-5.722792	2.076729	0.0	0.0	0.0
	364	pv	-12.849105	-3.179329	2.076729	0.0	0.0	0.0
	365	pv	-10.646401	-4.451060	2.076729	0.0	0.0	0.0
	366	pv	12.849105	-6.994524	-14.537102	0.0	0.0	0.0
	367	pv	12.114870	-8.266255	-12.460374	0.0	0.0	0.0
	368	pv	12.114870	-5.722792	-12.460374	0.0	0.0	0.0
	369	pv	9.912166	-6.994524	-12.460374	0.0	0.0	0.0
	370	pv	9.177932	-8.266255	-10.383645	0.0	0.0	0.0
	371	pv	9.177932	-5.722792	-10.383645	0.0	0.0	0.0
	372	pv	11.380636	-6.994524	-10.383645	0.0	0.0	0.0
	373	pv	6.975228	-6.994524	-10.383645	0.0	0.0	0.0
	374	pv	6.240994	-8.266255	-8.306916	0.0	0.0	0.0
	375	pv	6.240994	-5.722792	-8.306916	0.0	0.0	0.0
	376	pv	8.443697	-6.994524	-8.306916	0.0	0.0	0.0
	377	pv	4.038290	-6.994524	-8.306916	0.0	0.0	0.0
	378	pv	3.304055	-8.266255	-6.230187	0.0	0.0	0.0
	379	pv	3.304055	-5.722792	-6.230187	0.0	0.0	0.0
	380	pv	5.506759	-6.994524	-6.230187	0.0	0.0	0.0
	381	pv	1.101352	-6.994524	-6.230187	0.0	0.0	0.0
	382	pv	0.367117	-8.266255	-4.153458	0.0	0.0	0.0
	383	pv	0.367117	-5.722792	-4.153458	0.0	0.0	0.0
	384	pv	2.569821	-6.994524	-4.153458	0.0	0.0	0.0
	385	pv	-1.835586	-6.994524	-4.153458	0.0	0.0	0.0
	386	pv	-2.569821	-8.266255	-2.076729	0.0	0.0	0.0
	387	pv	-2.569821	-5.722792	-2.076729	0.0	0.0	0.0
	388	pv	-0.367117	-6.994524	-2.076729	0.0	0.0	0.0
	389	pv	-4.772525	-6.994524	-2.076729	0.0	0.0	0.0
	390	pv	-5.506759	-8.266255	0.000000	0.0	0.0	0.0
	391	pv	-5.506759	-5.722792	0.000000	0.0	0.0	0.0
	392	pv	-3.304055	-6.994524	0.000000	0.0	0.0	0.0
	393	pv	-7.709463	-6.994524	0.000000	0.0	0.0	0.0
	394	pv	-8.443697	-8.266255	2.076729	0.0	0.0	0.0
	395	pv	-8.443697	-5.722792	2.076729	0.0	0.0	0.0
	396	pv	-6.240994	-6.994524	2.076729	0.0	0.0	0.0
	397	pv	-10.646401	-6.994524	2.076729	0.0	0.0	0.0
	398	pv	-11.380636	-8.266255	4.153458	0.0	0.0	0.0
	399	pv	-11.380636	-5.722792	4.153458	0.0	0.0	0.0
	400	pv	-9.177932	-6.994524	4.153458	0.0	0.0	0.0
	401	pv	-12.114870	-6.994524	6.230187	0.0	0.0	0.0
	402	pv	11.380636	-9.537987	-10.383645	0.0	0.0	0.0
	403	pv	10.646401	-10.809718	-8.306916	0.0	0.0	0.0
	404	pv	10.646401	-8.266255	-8.306916	0.0	0.0	0.0
	405	pv	12.849105	-9.537987	-8.306916	0.0	0.0	0.0
	406	pv	8.443697	-9.537987	-8.306916	0.0	0.0	0.0
	407	pv	7.709463	-10.809718	-6.230187	0.0	0.0	0.0
	408	pv	7.709463	-8.266255	-6.230187	0.0	0.0	0.0
	409	pv	9.912166	-9.537987	-6.230187	0.0	0.0	0.0
	410	pv	5.506759	-9.537987	-6.230187	0.0	0.0	0.0
	411	pv	4.772525	-10.809718	-4.153458	0.0	0.0	0.0
	412	pv	4.772525	-8.266255	-4.153458	0.0	0.0	0.0
	413	pv	6.975228	-9.537987	-4.153458	0.0	0.0	0.0
	414	pv	2.569821	-9.537987	-4.153458	0.0	0.0	0.0
	415	pv	1.835586	-10.809718	-2.076729	0.0	0.0	0.0
	416	pv	1.835586	-8.266255	-2.076729	0.0	0.0	0.0
	417	pv	4.038290	-9.537987	-2.076729	0.0	0.0	0.0
	418	pv	-0.367117	-9.537987	-2.076729	0.0	0.0	0.0
	419	pv	-1.101352	-10.809718	0.000000	0.0	0.0	0.0
	420	pv	-1.101352	-8.266255	0.000000	0.0	0.0	0.0
	421	pv	1.101352	-9.537987	0.000000	0.0	0.0	0.0
	422	pv	-3.304055	-9.537987	0.000000	0.0	0.0	0.0
	423	pv	-4.038290	-10.809718	2.076729	0.0	0.0	0.0
	424	pv	-4.038290	-8.266255	2.076729	0.0	0.0	0.0
	425	pv	-1.835586	-9.537987	2.076729	0.0	0.0	0.0
	426	pv	-6.240994	-9.537987	2.076729	0.0	0.0	0.0
	427	pv	-6.975228	-10.809718	4.153458	0.0	0.0	0.0
	428	pv	-6.975228	-8.266255	4.153458	0.0	0.0	0.0
	429	pv	-4.772525	-9.537987	4.153458	0.0	0.0	0.0
	430	pv	-9.177932	-9.537987	4.153458	0.0	0.0	0.0
	431	pv	-9.912166	-10.809718	6.230187	0.0	0.0	0.0
	432	pv	-9.912166	-8.266255	6.230187	0.0	0.0	0.0
	433	pv	-7.709463	-9.537987	6.230187	0.0	0.0	0.0
	434	pv	-12.114870	-9.537987	6.230187	0.0	0.0	0.0
	435	pv	-12.849105	-10.809718	8.306916	0.0	0.0	0.0
	436	pv	-12.849105	-8.266255	8.306916	0.0	0.0	0.0
	437	pv	-10.646401	-9.537987	8.306916	0.0	0.0	0.0
	438	pv	12.849105	-12.081450	-8.306916	0.0	0.0	0.0
	439	pv	12.114870	-10.809718	-6.230187	0.0	0.0	0.0
	440	pv	9.912166	-12.081450	-6.230187	0.0	0.0	0.0
	441	pv	9.177932	-10.809718	-4.153458	0.0	0.0	0.0
	442	pv	11.380636	-12.081450	-4.153458	0.0	0.0	0.0
	443	pv	6.975228	-12.081450	-4.153458	0.0	0.0	0.0
	444	pv	6.240994	-10.809718	-2.076729	0.0	0.0	0.0
	445	pv	8.443697	-12.081450	-2.076729	0.0	0.0	0.0
	446	pv	4.038290	-12.081450	-2.076729	0.0	0.0	0.0
	447	pv	3.304055	-10.809718	0.000000	0.0	0.0	0.0
	448	pv	5.506759	-12.081450	0.000000	0.0	0.0	0.0
	449	pv	1.101352	-12.081450	0.000000	0.0	0.0	0.0
	450	pv	0.367117	-10.809718	2.076729	0.0	0.0	0.0
	451	pv	2.569821	-12.081450	2.076729	0.0	0.0	0.0
	452	pv	-1.835586	-12.081450	2.076729	0.0	0.0	0.0
	453	pv	-2.569821	-10.809718	4.153458	0.0	0.0	0.0
	454	pv	-0.367117	-12.081450	4.153458	0.0	0.0	0.0
	455	pv	-4.772525	-12.081450	4.153458	0.0	0.0	0.0
	456	pv	-5.506759	-10.809718	6.230187	0.0	0.0	0.0
	457	pv	-3.304055	-12.081450	6.230187	0.0	0.0	0.0
	458	pv	-7.709463	-12.081450	6.230187	0.0	0.0	0.0
	459	pv	-8.443697	-10.809718	8.306916	0.0	0.0	0.0
	460	pv	-6.240994	-12.081450	8.306916	0.0	0.0	0.0
	461	pv	-10.646401	-12.081450	8.306916	0.0	0.0	0.0
	462	pv	-11.380636	-10.809718	10.383645	0.0	0.0	0.0
	463	pv	-9.177932	-12.081450	10.383645	0.0	0.0	0.0
	464	pv	-12.114870	-12.081450	12.460374	0.0	0.0	0.0
	465	pv	-11.380636	12.081450	-14.537102	0.0	0.0	0.0
	466	pv	-6.975228	9.537987	-14.537102	0.0	0.0	0.0
	467	pv	-6.975228	12.081450	-14.537102	0.0	0.0	0.0
	468	pv	-4.772525	10.809718	-14.537102	0.0	0.0	0.0
	469	pv	-9.177932	10.809718	-14.537102	0.0	0.0	0.0
	470	pv	-9.912166	9.537987	-12.460374	0.0	0.0	0.0
	471	pv	-9.912166	12.081450	-12.460374	0.0	0.0	0.0
	472	pv	-7.709463	10.809718	-12.460374	0.0	0.0	0.0
	473	pv	-12.114870	10.809718	-12.460374	0.0	0.0	0.0
	474	pv	-12.849105	9.537987	-10.383645	0.0	0.0	0.0
	475	pv	-12.849105	12.081450	-10.383645	0.0	0.0	0.0
	476	pv	-10.646401	10.809718	-10.383645	0.0	0.0	0.0
	477	pv	-2.569821	6.994524	-14.537102	0.0	0.0	0.0
	478	pv	-2.569821	9.537987	-14.537102	0.0	0.0	0.0
	479	pv	-0.367117	8.266255	-14.537102	0.0	0.0	0.0
	480	pv	-4.772525	8.266255	-14.537102	0.0	0.0	0.0
	481	pv	-5.506759	6.994524	-12.460374	0.0	0.0	0.0
	482	pv	-5.506759	9.537987	-12.460374	0.0	0.0	0.0
	483	pv	-3.304055	8.266255	-12.460374	0.0	0.0	0.0
	484	pv	-7.709463	8.266255	-12.460374	0.0	0.0	0.0
	485	pv	-8.443697	6.994524	-10.383645	0.0	0.0	0.0
	486	pv	-8.443697	9.537987	-10.383645	0.0	0.0	0.0
	487	pv	-6.240994	8.266255	-10.383645	0.0	0.0	0.0
	488	pv	-10.646401	8.266255	-10.383645	0.0	0.0	0.0
	489	pv	-11.380636	6.994524	-8.306916	0.0	0.0	0.0
	490	pv	-11.380636	9.537987	-8.306916	0.0	0.0	0.0
	491	pv	-9.177932	8.266255	-8.306916	0.0	0.0	0.0
	492	pv	-12.114870	8.266255	-6.230187	0.0	0.0	0.0
	493	pv	1.835586	4.451060	-14.537102	0.0	0.0	0.0
	494	pv	1.835586	6.994524	-14.537102	0.0	0.0	0.0
	495	pv	4.038290	5.722792	-14.537102	0.0	0.0	0.0
	496	pv	-0.367117	5.722792	-14.537102	0.0	0.0	0.0
	497	pv	-1.101352	4.451060	-12.460374	0.0	0.0	0.0
	498	pv	-1.101352	6.994524	-12.460374	0.0	0.0	0.0
	499	pv	1.101352	5.722792	-12.460374	0.0	0.0	0.0
	500	pv	-3.304055	5.722792	-12.460374	0.0	0.0	0.0
	501	pv	-4.038290	4.451060	-10.383645	0.0	0.0	0.0
	502	pv	-4.038290	6.994524	-10.383645	0.0	0.0	0.0
	503	pv	-1.835586	5.722792	-10.383645	0.0	0.0	0.0
	504	pv	-6.240994	5.722792	-10.383645	0.0	0.0	0.0
	505	pv	-6.975228	4.451060	-8.306916	0.0	0.0	0.0
	506	pv	-6.975228	6.994524	-8.306916	0.0	0.0	0.0
	507	pv	-4.772525	5.722792	-8.306916	0.0	0.0	0.0
	508	pv	-9.177932	5.722792	-8.306916	0.0	0.0	0.0
	509	pv	-9.912166	4.451060	-6.230187	0.0	0.0	0.0
	510	pv	-9.912166	6.994524	-6.230187	0.0	0.0	0.0
	511	pv	-7.709463	5.722792	-6.230187	0.0	0.0	0.0
	512	pv	-12.114870	5.722792	-6.230187	0.0	0.0	0.0
	513	pv	-12.849105	4.451060	-4.153458	0.0	0.0	0.0
	514	pv	-12.849105	6.994524	-4.153458	0.0	0.0	0.0
	515	pv	-10.646401	5.722792	-4.153458	0.0	0.0	0.0
	516	pv	6.240994	1.907597	-14.537102	0.0	0.0	0.0
	517	pv	6.240994	4.451060	-14.537102	0.0	0.0	0.0
	518	pv	8.443697	3.179329	-14.537102	0.0	0.0	0.0
	519	pv	4.038290	3.179329	-14.537102	0.0	0.0	0.0
	520	pv	3.304055	1.907597	-12.460374	0.0	0.0	0.0
	521	pv	3.304055	4.451060	-12.460374	0.0	0.0	0.0
	522	pv	5.506759	3.179329	-12.460374	0.0	0.0	0.0
	523	pv	1.101352	3.179329	-12.460374	0.0	0.0	0.0
	524	pv	0.367117	1.907597	-10.383645	0.0	0.0	0.0
	525	pv	0.367117	4.451060	-10.383645	0.0	0.0	0.0
	526	pv	2.569821	3.179329	-10.383645	0.0	0.0	0.0
	527	pv	-1.835586	3.179329	-10.383645	0.0	0.0	0.0
	528	pv	-2.569821	1.907597	-8.306916	0.0	0.0	0.0
	529	pv	-2.569821	4.451060	-8.306916	0.0	0.0	0.0
	530	pv	-0.367117	3.179329	-8.306916	0.0	0.0	0.0
	531	pv	-4.772525	3.179329	-8.306916	0.0	0.0	0.0
	532	pv	-5.506759	1.907597	-6.230187	0.0	0.0	0.0
	533	pv	-5.506759	4.451060	-6.230187	0.0	0.0	0.0
	534	pv	-3.304055	3.179329	-6.230187	0.0	0.0	0.0
	535	pv	-7.709463	3.179329	-6.230187	0.0	0.0	0.0
	536	pv	-8.443697	1.907597	-4.153458	0.0	0.0	0.0
	537	pv	-8.443697	4.451060	-4.153458	0.0	0.0	0.0
	538	pv	-6.240994	3.179329	-4.153458	0.0	0.0	0.0
	539	pv	-10.646401	3.179329	-4.153458	0.0	0.0	0.0
	540	pv	-11.380636	1.907597	-2.076729	0.0	0.0	0.0
	541	pv	-11.380636	4.451060	-2.076729	0.0	0.0	0.0
	542	pv	-9.177932	3.179329	-2.076729	0.0	0.0	0.0
	543	pv	-12.114870	3.179329	0.000000	0.0	0.0	0.0
	544	pv	10.646401	-0.635866	-14.537102	0.0	0.0	0.0
	545	pv	10.646401	1.907597	-14.537102	0.0	0.0	0.0
	546	pv	12.849105	0.635866	-14.537102	0.0	0.0	0.0
	547	pv	8.443697	0.635866	-14.537102	0.0	0.0	0.0
	548	pv	7.709463	-0.635866	-12.460374	0.0	0.0	0.0
	549	pv	7.709463	1.907597	-12.460374	0.0	0.0	0.0
	550	pv	9.912166	0.635866	-12.460374	0.0	0.0	0.0
	551	pv	5.506759	0.635866	-12.460374	0.0	0.0	0.0
	552	pv	4.772525	-0.635866	-10.383645	0.0	0.0	0.0
	553	pv	4.772525	1.907597	-10.383645	0.0	0.0	0.0
	554	pv	6.975228	0.635866	-10.383645	0.0	0.0	0.0
	555	pv	2.569821	0.635866	-10.383645	0.0	0.0	0.0
	556	pv	1.835586	-0.635866	-8.306916	0.0	0.0	0.0
	557	pv	1.835586	1.907597	-8.306916	0.0	0.0	0.0
	558	pv	4.038290	0.635866	-8.306916	0.0	0.0	0.0
	559	pv	-0.367117	0.635866	-8.306916	0.0	0.0	0.0
	560	pv	-1.101352	-0.635866	-6.230187	0.0	0.0	0.0
	561	pv	-1.101352	1.907597	-6.230187	0.0	0.0	0.0
	562	pv	1.101352	0.635866	-6.230187	0.0	0.0	0.0
	563	pv	-3.304055	0.635866	-6.230187	0.0	0.0	0.0
	564	pv	-4.038290	-0.635866	-4.153458	0.0	0.0	0.0
	565	pv	-4.038290	1.907597	-4.153458	0.0	0.0	0.0
	566	pv	-1.835586	0.635866	-4.153458	0.0	0.0	0.0
	567	pv	-6.240994	0.635866	-4.153458	0.0	0.0	0.0
	568	pv	-6.975228	-0.635866	-2.076729	0.0	0.0	0.0
	569	pv	-6.975228	1.907597	-2.076729	0.0	0.0	0.0
	570	pv	-4.772525	0.635866	-2.076729	0.0	0.0	0.0