<OpenMD version=2>
  <MetaData>

molecule{
  name = "Cl-";
  
  atom[0]{
    type = "Cl-";
    position(0.0, 0.0, 0.0);
  }
}

molecule{
  name = "Na+";
  
  atom[0]{
    type = "Na+";
    position(0.0, 0.0, 0.0);
  }
}
 
component{
  type = "Na+";
  nMol = 4000;
}
 
component{
  type = "Cl-";
  nMol = 4000;
}

ensemble = NVE;
forceField = "DUFF";
cutoffMethod = "shifted_force";
electrostaticScreeningMethod = "damped";
cutoffRadius = 28;
dampingAlpha = 0.14159292;


dt = 2.0;
runTime = 2;
sampleTime = 100;
statusTime = 2;

statFileFormat = "TIME|TOTAL_ENERGY|POTENTIAL_ENERGY|KINETIC_ENERGY|TEMPERATURE|PRESSURE|VOLUME|CONSERVED_QUANTITY|ELECTROSTATIC_POTENTIAL";

  </MetaData>
  <Snapshot>
    <FrameData>
        Time: 0
        Hmat: {{ 56.5, 0, 0 }, { 0, 56.5, 0 }, { 0, 0, 56.5 }}
    </FrameData>
    <StuntDoubles>
            0 pv    0.000000        0.000000        0.000000     0 0 0
            1 pv    2.825000        2.825000        0.000000     0 0 0
            2 pv    0.000000        2.825000        2.825000     0 0 0
            3 pv    2.825000        0.000000        2.825000     0 0 0
            4 pv    5.650000        0.000000        0.000000     0 0 0
            5 pv    8.475000        2.825000        0.000000     0 0 0
            6 pv    5.650000        2.825000        2.825000     0 0 0
            7 pv    8.475000        0.000000        2.825000     0 0 0
            8 pv    11.30000        0.000000        0.000000     0 0 0
            9 pv    14.12500        2.825000        0.000000     0 0 0
           10 pv    11.30000        2.825000        2.825000     0 0 0
           11 pv    14.12500        0.000000        2.825000     0 0 0
           12 pv    16.95000        0.000000        0.000000     0 0 0
           13 pv    19.77500        2.825000        0.000000     0 0 0
           14 pv    16.95000        2.825000        2.825000     0 0 0
           15 pv    19.77500        0.000000        2.825000     0 0 0
           16 pv    22.60000        0.000000        0.000000     0 0 0
           17 pv    25.42500        2.825000        0.000000     0 0 0
           18 pv    22.60000        2.825000        2.825000     0 0 0
           19 pv    25.42500        0.000000        2.825000     0 0 0
           20 pv    28.25000        0.000000        0.000000     0 0 0
           21 pv    31.07500        2.825000        0.000000     0 0 0
           22 pv    28.25000        2.825000        2.825000     0 0 0
           23 pv    31.07500        0.000000        2.825000     0 0 0
           24 pv    33.90000        0.000000        0.000000     0 0 0
           25 pv    36.72500        2.825000        0.000000     0 0 0
           26 pv    33.90000        2.825000        2.825000     0 0 0
           27 pv    36.72500        0.000000        2.825000     0 0 0
           28 pv    39.55000        0.000000        0.000000     0 0 0
           29 pv    42.37500        2.825000        0.000000     0 0 0
           30 pv    39.55000        2.825000        2.825000     0 0 0
           31 pv    42.37500        0.000000        2.825000     0 0 0
           32 pv    45.20000        0.000000        0.000000     0 0 0
           33 pv    48.02500        2.825000        0.000000     0 0 0
           34 pv    45.20000        2.825000        2.825000     0 0 0
           35 pv    48.02500        0.000000        2.825000     0 0 0
           36 pv    50.85000        0.000000        0.000000     0 0 0
           37 pv    53.67500        2.825000        0.000000     0 0 0
           38 pv    50.85000        2.825000        2.825000     0 0 0
           39 pv    53.67500        0.000000        2.825000     0 0 0
           40 pv    0.000000        5.650000        0.000000     0 0 0
           41 pv    2.825000        8.475000        0.000000     0 0 0
           42 pv    0.000000        8.475000        2.825000     0 0 0
           43 pv    2.825000        5.650000        2.825000     0 0 0
           44 pv    5.650000        5.650000        0.000000     0 0 0
           45 pv    8.475000        8.475000        0.000000     0 0 0
           46 pv    5.650000        8.475000        2.825000     0 0 0
           47 pv    8.475000        5.650000        2.825000     0 0 0
           48 pv    11.30000        5.650000        0.000000     0 0 0
           49 pv    14.12500        8.475000        0.000000     0 0 0
           50 pv    11.30000        8.475000        2.825000     0 0 0
           51 pv    14.12500        5.650000        2.825000     0 0 0
           52 pv    16.95000        5.650000        0.000000     0 0 0
           53 pv    19.77500        8.475000        0.000000     0 0 0
           54 pv    16.95000        8.475000        2.825000     0 0 0
           55 pv    19.77500        5.650000        2.825000     0 0 0
           56 pv    22.60000        5.650000        0.000000     0 0 0
           57 pv    25.42500        8.475000        0.000000     0 0 0
           58 pv    22.60000        8.475000        2.825000     0 0 0
           59 pv    25.42500        5.650000        2.825000     0 0 0
           60 pv    28.25000        5.650000        0.000000     0 0 0
           61 pv    31.07500        8.475000        0.000000     0 0 0
           62 pv    28.25000        8.475000        2.825000     0 0 0
           63 pv    31.07500        5.650000        2.825000     0 0 0
           64 pv    33.90000        5.650000        0.000000     0 0 0
           65 pv    36.72500        8.475000        0.000000     0 0 0
           66 pv    33.90000        8.475000        2.825000     0 0 0
           67 pv    36.72500        5.650000        2.825000     0 0 0
           68 pv    39.55000        5.650000        0.000000     0 0 0
           69 pv    42.37500        8.475000        0.000000     0 0 0
           70 pv    39.55000        8.475000        2.825000     0 0 0
           71 pv    42.37500        5.650000        2.825000     0 0 0
           72 pv    45.20000        5.650000        0.000000     0 0 0
           73 pv    48.02500        8.475000        0.000000     0 0 0
           74 pv    45.20000        8.475000        2.825000     0 0 0
           75 pv    48.02500        5.650000        2.825000     0 0 0
           76 pv    50.85000        5.650000        0.000000     0 0 0
           77 pv    53.67500        8.475000        0.000000     0 0 0
           78 pv    50.85000        8.475000        2.825000     0 0 0
           79 pv    53.67500        5.650000        2.825000     0 0 0
           80 pv    0.000000        11.30000        0.000000     0 0 0
           81 pv    2.825000        14.12500        0.000000     0 0 0
           82 pv    0.000000        14.12500        2.825000     0 0 0
           83 pv    2.825000        11.30000        2.825000     0 0 0
           84 pv    5.650000        11.30000        0.000000     0 0 0
           85 pv    8.475000        14.12500        0.000000     0 0 0
           86 pv    5.650000        14.12500        2.825000     0 0 0
           87 pv    8.475000        11.30000        2.825000     0 0 0
           88 pv    11.30000        11.30000        0.000000     0 0 0
           89 pv    14.12500        14.12500        0.000000     0 0 0
           90 pv    11.30000        14.12500        2.825000     0 0 0
           91 pv    14.12500        11.30000        2.825000     0 0 0
           92 pv    16.95000        11.30000        0.000000     0 0 0
           93 pv    19.77500        14.12500        0.000000     0 0 0
           94 pv    16.95000        14.12500        2.825000     0 0 0
           95 pv    19.77500        11.30000        2.825000     0 0 0
           96 pv    22.60000        11.30000        0.000000     0 0 0
           97 pv    25.42500        14.12500        0.000000     0 0 0
           98 pv    22.60000        14.12500        2.825000     0 0 0
           99 pv    25.42500        11.30000        2.825000     0 0 0
          100 pv    28.25000        11.30000        0.000000     0 0 0
          101 pv    31.07500        14.12500        0.000000     0 0 0
          102 pv    28.25000        14.12500        2.825000     0 0 0
          103 pv    31.07500        11.30000        2.825000     0 0 0
          104 pv    33.90000        11.30000        0.000000     0 0 0
          105 pv    36.72500        14.12500        0.000000     0 0 0
          106 pv    33.90000        14.12500        2.825000     0 0 0
          107 pv    36.72500        11.30000        2.825000     0 0 0
          108 pv    39.55000        11.30000        0.000000     0 0 0
          109 pv    42.37500        14.12500        0.000000     0 0 0
          110 pv    39.55000        14.12500        2.825000     0 0 0
          111 pv    42.37500        11.30000        2.825000     0 0 0
          112 pv    45.20000        11.30000        0.000000     0 0 0
          113 pv    48.02500        14.12500        0.000000     0 0 0
          114 pv    45.20000        14.12500        2.825000     0 0 0
          115 pv    48.02500        11.30000        2.825000     0 0 0
          116 pv    50.85000        11.30000        0.000000     0 0 0
          117 pv    53.67500        14.12500        0.000000     0 0 0
          118 pv    50.85000        14.12500        2.825000     0 0 0
          119 pv    53.67500        11.30000        2.825000     0 0 0
          120 pv    0.000000        16.95000        0.000000     0 0 0
          121 pv    2.825000        19.77500        0.000000     0 0 0
          122 pv    0.000000        19.77500        2.825000     0 0 0
          123 pv    2.825000        16.95000        2.825000     0 0 0
          124 pv    5.650000        16.95000        0.000000     0 0 0
          125 pv    8.475000        19.77500        0.000000     0 0 0
          126 pv    5.650000        19.77500        2.825000     0 0 0
          127 pv    8.475000        16.95000        2.825000     0 0 0
          128 pv    11.30000        16.95000        0.000000     0 0 0
          129 pv    14.12500        19.77500        0.000000     0 0 0
          130 pv    11.30000        19.77500        2.825000     0 0 0
          131 pv    14.12500        16.95000        2.825000     0 0 0
          132 pv    16.95000        16.95000        0.000000     0 0 0
          133 pv    19.77500        19.77500        0.000000     0 0 0
          134 pv    16.95000        19.77500        2.825000     0 0 0
          135 pv    19.77500        16.95000        2.825000     0 0 0
          136 pv    22.60000        16.95000        0.000000     0 0 0
          137 pv    25.42500        19.77500        0.000000     0 0 0
          138 pv    22.60000        19.77500        2.825000     0 0 0
          139 pv    25.42500        16.95000        2.825000     0 0 0
          140 pv    28.25000        16.95000        0.000000     0 0 0
          141 pv    31.07500        19.77500        0.000000     0 0 0
          142 pv    28.25000        19.77500        2.825000     0 0 0
          143 pv    31.07500        16.95000        2.825000     0 0 0
          144 pv    33.90000        16.95000        0.000000     0 0 0
          145 pv    36.72500        19.77500        0.000000     0 0 0
          146 pv    33.90000        19.77500        2.825000     0 0 0
          147 pv    36.72500        16.95000        2.825000     0 0 0
          148 pv    39.55000        16.95000        0.000000     0 0 0
          149 pv    42.37500        19.77500        0.000000     0 0 0
          150 pv    39.55000        19.77500        2.825000     0 0 0
          151 pv    42.37500        16.95000        2.825000     0 0 0
          152 pv    45.20000        16.95000        0.000000     0 0 0
          153 pv    48.02500        19.77500        0.000000     0 0 0
          154 pv    45.20000        19.77500        2.825000     0 0 0
          155 pv    48.02500        16.95000        2.825000     0 0 0
          156 pv    50.85000        16.95000        0.000000     0 0 0
          157 pv    53.67500        19.77500        0.000000     0 0 0
          158 pv    50.85000        19.77500        2.825000     0 0 0
          159 pv    53.67500        16.95000        2.825000     0 0 0
          160 pv    0.000000        22.60000        0.000000     0 0 0
          161 pv    2.825000        25.42500        0.000000     0 0 0
          162 pv    0.000000        25.42500        2.825000     0 0 0
          163 pv    2.825000        22.60000        2.825000     0 0 0
          164 pv    5.650000        22.60000        0.000000     0 0 0
          165 pv    8.475000        25.42500        0.000000     0 0 0
          166 pv    5.650000        25.42500        2.825000     0 0 0
          167 pv    8.475000        22.60000        2.825000     0 0 0
          168 pv    11.30000        22.60000        0.000000     0 0 0
          169 pv    14.12500        25.42500        0.000000     0 0 0
          170 pv    11.30000        25.42500        2.825000     0 0 0
          171 pv    14.12500        22.60000        2.825000     0 0 0
          172 pv    16.95000        22.60000        0.000000     0 0 0
          173 pv    19.77500        25.42500        0.000000     0 0 0
          174 pv    16.95000        25.42500        2.825000     0 0 0
          175 pv    19.77500        22.60000        2.825000     0 0 0
          176 pv    22.60000        22.60000        0.000000     0 0 0
          177 pv    25.42500        25.42500        0.000000     0 0 0
          178 pv    22.60000        25.42500        2.825000     0 0 0
          179 pv    25.42500        22.60000        2.825000     0 0 0
          180 pv    28.25000        22.60000        0.000000     0 0 0
          181 pv    31.07500        25.42500        0.000000     0 0 0
          182 pv    28.25000        25.42500        2.825000     0 0 0
          183 pv    31.07500        22.60000        2.825000     0 0 0
          184 pv    33.90000        22.60000        0.000000     0 0 0
          185 pv    36.72500        25.42500        0.000000     0 0 0
          186 pv    33.90000        25.42500        2.825000     0 0 0
          187 pv    36.72500        22.60000        2.825000     0 0 0
          188 pv    39.55000        22.60000        0.000000     0 0 0
          189 pv    42.37500        25.42500        0.000000     0 0 0
          190 pv    39.55000        25.42500        2.825000     0 0 0
          191 pv    42.37500        22.60000        2.825000     0 0 0
          192 pv    45.20000        22.60000        0.000000     0 0 0
          193 pv    48.02500        25.42500        0.000000     0 0 0
          194 pv    45.20000        25.42500        2.825000     0 0 0
          195 pv    48.02500        22.60000        2.825000     0 0 0
          196 pv    50.85000        22.60000        0.000000     0 0 0
          197 pv    53.67500        25.42500        0.000000     0 0 0
          198 pv    50.85000        25.42500        2.825000     0 0 0
          199 pv    53.67500        22.60000        2.825000     0 0 0
          200 pv    0.000000        28.25000        0.000000     0 0 0
          201 pv    2.825000        31.07500        0.000000     0 0 0
          202 pv    0.000000        31.07500        2.825000     0 0 0
          203 pv    2.825000        28.25000        2.825000     0 0 0
          204 pv    5.650000        28.25000        0.000000     0 0 0
          205 pv    8.475000        31.07500        0.000000     0 0 0
          206 pv    5.650000        31.07500        2.825000     0 0 0
          207 pv    8.475000        28.25000        2.825000     0 0 0
          208 pv    11.30000        28.25000        0.000000     0 0 0
          209 pv    14.12500        31.07500        0.000000     0 0 0
          210 pv    11.30000        31.07500        2.825000     0 0 0
          211 pv    14.12500        28.25000        2.825000     0 0 0
          212 pv    16.95000        28.25000        0.000000     0 0 0
          213 pv    19.77500        31.07500        0.000000     0 0 0
          214 pv    16.95000        31.07500        2.825000     0 0 0
          215 pv    19.77500        28.25000        2.825000     0 0 0
          216 pv    22.60000        28.25000        0.000000     0 0 0
          217 pv    25.42500        31.07500        0.000000     0 0 0
          218 pv    22.60000        31.07500        2.825000     0 0 0
          219 pv    25.42500        28.25000        2.825000     0 0 0
          220 pv    28.25000        28.25000        0.000000     0 0 0
          221 pv    31.07500        31.07500        0.000000     0 0 0
          222 pv    28.25000        31.07500        2.825000     0 0 0
          223 pv    31.07500        28.25000        2.825000     0 0 0
          224 pv    33.90000        28.25000        0.000000     0 0 0
          225 pv    36.72500        31.07500        0.000000     0 0 0
          226 pv    33.90000        31.07500        2.825000     0 0 0
          227 pv    36.72500        28.25000        2.825000     0 0 0
          228 pv    39.55000        28.25000        0.000000     0 0 0
          229 pv    42.37500        31.07500        0.000000     0 0 0
          230 pv    39.55000        31.07500        2.825000     0 0 0
          231 pv    42.37500        28.25000        2.825000     0 0 0
          232 pv    45.20000        28.25000        0.000000     0 0 0
          233 pv    48.02500        31.07500        0.000000     0 0 0
          234 pv    45.20000        31.07500        2.825000     0 0 0
          235 pv    48.02500        28.25000        2.825000     0 0 0
          236 pv    50.85000        28.25000        0.000000     0 0 0
          237 pv    53.67500        31.07500        0.000000     0 0 0
          238 pv    50.85000        31.07500        2.825000     0 0 0
          239 pv    53.67500        28.25000        2.825000     0 0 0
          240 pv    0.000000        33.90000        0.000000     0 0 0
          241 pv    2.825000        36.72500        0.000000     0 0 0
          242 pv    0.000000        36.72500        2.825000     0 0 0
          243 pv    2.825000        33.90000        2.825000     0 0 0
          244 pv    5.650000        33.90000        0.000000     0 0 0
          245 pv    8.475000        36.72500        0.000000     0 0 0
          246 pv    5.650000        36.72500        2.825000     0 0 0
          247 pv    8.475000        33.90000        2.825000     0 0 0
          248 pv    11.30000        33.90000        0.000000     0 0 0
          249 pv    14.12500        36.72500        0.000000     0 0 0
          250 pv    11.30000        36.72500        2.825000     0 0 0
          251 pv    14.12500        33.90000        2.825000     0 0 0
          252 pv    16.95000        33.90000        0.000000     0 0 0
          253 pv    19.77500        36.72500        0.000000     0 0 0
          254 pv    16.95000        36.72500        2.825000     0 0 0
          255 pv    19.77500        33.90000        2.825000     0 0 0
          256 pv    22.60000        33.90000        0.000000     0 0 0
          257 pv    25.42500        36.72500        0.000000     0 0 0
          258 pv    22.60000        36.72500        2.825000     0 0 0
          259 pv    25.42500        33.90000        2.825000     0 0 0
          260 pv    28.25000        33.90000        0.000000     0 0 0
          261 pv    31.07500        36.72500        0.000000     0 0 0
          262 pv    28.25000        36.72500        2.825000     0 0 0
          263 pv    31.07500        33.90000        2.825000     0 0 0
          264 pv    33.90000        33.90000        0.000000     0 0 0
          265 pv    36.72500        36.72500        0.000000     0 0 0
          266 pv    33.90000        36.72500        2.825000     0 0 0
          267 pv    36.72500        33.90000        2.825000     0 0 0
          268 pv    39.55000        33.90000        0.000000     0 0 0
          269 pv    42.37500        36.72500        0.000000     0 0 0
          270 pv    39.55000        36.72500        2.825000     0 0 0
          271 pv    42.37500        33.90000        2.825000     0 0 0
          272 pv    45.20000        33.90000        0.000000     0 0 0
          273 pv    48.02500        36.72500        0.000000     0 0 0
          274 pv    45.20000        36.72500        2.825000     0 0 0
          275 pv    48.02500        33.90000        2.825000     0 0 0
          276 pv    50.85000        33.90000        0.000000     0 0 0
          277 pv    53.67500        36.72500        0.000000     0 0 0
          278 pv    50.85000        36.72500        2.825000     0 0 0
          279 pv    53.67500        33.90000        2.825000     0 0 0
          280 pv    0.000000        39.55000        0.000000     0 0 0
          281 pv    2.825000        42.37500        0.000000     0 0 0
          282 pv    0.000000        42.37500        2.825000     0 0 0
          283 pv    2.825000        39.55000        2.825000     0 0 0
          284 pv    5.650000        39.55000        0.000000     0 0 0
          285 pv    8.475000        42.37500        0.000000     0 0 0
          286 pv    5.650000        42.37500        2.825000     0 0 0
          287 pv    8.475000        39.55000        2.825000     0 0 0
          288 pv    11.30000        39.55000        0.000000     0 0 0
          289 pv    14.12500        42.37500        0.000000     0 0 0
          290 pv    11.30000        42.37500        2.825000     0 0 0
          291 pv    14.12500        39.55000        2.825000     0 0 0
          292 pv    16.95000        39.55000        0.000000     0 0 0
          293 pv    19.77500        42.37500        0.000000     0 0 0
          294 pv    16.95000        42.37500        2.825000     0 0 0
          295 pv    19.77500        39.55000        2.825000     0 0 0
          296 pv    22.60000        39.55000        0.000000     0 0 0
          297 pv    25.42500        42.37500        0.000000     0 0 0
          298 pv    22.60000        42.37500        2.825000     0 0 0
          299 pv    25.42500        39.55000        2.825000     0 0 0
          300 pv    28.25000        39.55000        0.000000     0 0 0
          301 pv    31.07500        42.37500        0.000000     0 0 0
          302 pv    28.25000        42.37500        2.825000     0 0 0
          303 pv    31.07500        39.55000        2.825000     0 0 0
          304 pv    33.90000        39.55000        0.000000     0 0 0
          305 pv    36.72500        42.37500        0.000000     0 0 0
          306 pv    33.90000        42.37500        2.825000     0 0 0
          307 pv    36.72500        39.55000        2.825000     0 0 0
          308 pv    39.55000        39.55000        0.000000     0 0 0
          309 pv    42.37500        42.37500        0.000000     0 0 0
          310 pv    39.55000        42.37500        2.825000     0 0 0
          311 pv    42.37500        39.55000        2.825000     0 0 0
          312 pv    45.20000        39.55000        0.000000     0 0 0
          313 pv    48.02500        42.37500        0.000000     0 0 0
          314 pv    45.20000        42.37500        2.825000     0 0 0
          315 pv    48.02500        39.55000        2.825000     0 0 0
          316 pv    50.85000        39.55000        0.000000     0 0 0
          317 pv    53.67500        42.37500        0.000000     0 0 0
          318 pv    50.85000        42.37500        2.825000     0 0 0
          319 pv    53.67500        39.55000        2.825000     0 0 0
          320 pv    0.000000        45.20000        0.000000     0 0 0
          321 pv    2.825000        48.02500        0.000000     0 0 0
          322 pv    0.000000        48.02500        2.825000     0 0 0
          323 pv    2.825000        45.20000        2.825000     0 0 0
          324 pv    5.650000        45.20000        0.000000     0 0 0
          325 pv    8.475000        48.02500        0.000000     0 0 0
          326 pv    5.650000        48.02500        2.825000     0 0 0
          327 pv    8.475000        45.20000        2.825000     0 0 0
          328 pv    11.30000        45.20000        0.000000     0 0 0
          329 pv    14.12500        48.02500        0.000000     0 0 0
          330 pv    11.30000        48.02500        2.825000     0 0 0
          331 pv    14.12500        45.20000        2.825000     0 0 0
          332 pv    16.95000        45.20000        0.000000     0 0 0
          333 pv    19.77500        48.02500        0.000000     0 0 0
          334 pv    16.95000        48.02500        2.825000     0 0 0
          335 pv    19.77500        45.20000        2.825000     0 0 0
          336 pv    22.60000        45.20000        0.000000     0 0 0
          337 pv    25.42500        48.02500        0.000000     0 0 0
          338 pv    22.60000        48.02500        2.825000     0 0 0
          339 pv    25.42500        45.20000        2.825000     0 0 0
          340 pv    28.25000        45.20000        0.000000     0 0 0
          341 pv    31.07500        48.02500        0.000000     0 0 0
          342 pv    28.25000        48.02500        2.825000     0 0 0
          343 pv    31.07500        45.20000        2.825000     0 0 0
          344 pv    33.90000        45.20000        0.000000     0 0 0
          345 pv    36.72500        48.02500        0.000000     0 0 0
          346 pv    33.90000        48.02500        2.825000     0 0 0
          347 pv    36.72500        45.20000        2.825000     0 0 0
          348 pv    39.55000        45.20000        0.000000     0 0 0
          349 pv    42.37500        48.02500        0.000000     0 0 0
          350 pv    39.55000        48.02500        2.825000     0 0 0
          351 pv    42.37500        45.20000        2.825000     0 0 0
          352 pv    45.20000        45.20000        0.000000     0 0 0
          353 pv    48.02500        48.02500        0.000000     0 0 0
          354 pv    45.20000        48.02500        2.825000     0 0 0
          355 pv    48.02500        45.20000        2.825000     0 0 0
          356 pv    50.85000        45.20000        0.000000     0 0 0
          357 pv    53.67500        48.02500        0.000000     0 0 0
          358 pv    50.85000        48.02500        2.825000     0 0 0
          359 pv    53.67500        45.20000        2.825000     0 0 0
          360 pv    0.000000        50.85000        0.000000     0 0 0
          361 pv    2.825000        53.67500        0.000000     0 0 0
          362 pv    0.000000        53.67500        2.825000     0 0 0
          363 pv    2.825000        50.85000        2.825000     0 0 0
          364 pv    5.650000        50.85000        0.000000     0 0 0
          365 pv    8.475000        53.67500        0.000000     0 0 0
          366 pv    5.650000        53.67500        2.825000     0 0 0
          367 pv    8.475000        50.85000        2.825000     0 0 0
          368 pv    11.30000        50.85000        0.000000     0 0 0
          369 pv    14.12500        53.67500        0.000000     0 0 0
          370 pv    11.30000        53.67500        2.825000     0 0 0
          371 pv    14.12500        50.85000        2.825000     0 0 0
          372 pv    16.95000        50.85000        0.000000     0 0 0
          373 pv    19.77500        53.67500        0.000000     0 0 0
          374 pv    16.95000        53.67500        2.825000     0 0 0
          375 pv    19.77500        50.85000        2.825000     0 0 0
          376 pv    22.60000        50.85000        0.000000     0 0 0
          377 pv    25.42500        53.67500        0.000000     0 0 0
          378 pv    22.60000        53.67500        2.825000     0 0 0
          379 pv    25.42500        50.85000        2.825000     0 0 0
          380 pv    28.25000        50.85000        0.000000     0 0 0
          381 pv    31.07500        53.67500        0.000000     0 0 0
          382 pv    28.25000        53.67500        2.825000     0 0 0
          383 pv    31.07500        50.85000        2.825000     0 0 0
          384 pv    33.90000        50.85000        0.000000     0 0 0
          385 pv    36.72500        53.67500        0.000000     0 0 0
          386 pv    33.90000        53.67500        2.825000     0 0 0
          387 pv    36.72500        50.85000        2.825000     0 0 0
          388 pv    39.55000        50.85000        0.000000     0 0 0
          389 pv    42.37500        53.67500        0.000000     0 0 0
          390 pv    39.55000        53.67500        2.825000     0 0 0
          391 pv    42.37500        50.85000        2.825000     0 0 0
          392 pv    45.20000        50.85000        0.000000     0 0 0
          393 pv    48.02500        53.67500        0.000000     0 0 0
          394 pv    45.20000        53.67500        2.825000     0 0 0
          395 pv    48.02500        50.85000        2.825000     0 0 0
          396 pv    50.85000        50.85000        0.000000     0 0 0
          397 pv    53.67500        53.67500        0.000000     0 0 0
          398 pv    50.85000        53.67500        2.825000     0 0 0
          399 pv    53.67500        50.85000        2.825000     0 0 0
          400 pv    0.000000        0.000000        5.650000     0 0 0
          401 pv    2.825000        2.825000        5.650000     0 0 0
          402 pv    0.000000        2.825000        8.475000     0 0 0
          403 pv    2.825000        0.000000        8.475000     0 0 0
          404 pv    5.650000        0.000000        5.650000     0 0 0
          405 pv    8.475000        2.825000        5.650000     0 0 0
          406 pv    5.650000        2.825000        8.475000     0 0 0
          407 pv    8.475000        0.000000        8.475000     0 0 0
          408 pv    11.30000        0.000000        5.650000     0 0 0
          409 pv    14.12500        2.825000        5.650000     0 0 0