<OpenMD version=2>
  <MetaData>


molecule{
  name = "TIP4P_FQ";
  
  atom[0]{
    type = "O_TIP4P_FQ";
    position( 0.0, 0.0, -0.06556 );
  }
  atom[1]{
    type = "H_TIP4P_FQ";
    position( 0.0, 0.75695, 0.52032 );
  }
  atom[2]{
    type = "H_TIP4P_FQ";
    position( 0.0, -0.75695, 0.52032 );
  }
  atom[3]{
    type = "M_TIP4P_FQ";
    position( 0.0, 0.0, 0.08444 );
  }

  rigidBody[0]{
    members(0, 1, 2, 3);
  }

}

component{
  type = "TIP4P_FQ";
  nMol = 864;
}
flucQ {
  propagator = "Langevin";
  targetTemp = 1;
  dragCoefficient = 1;
}

ensemble = NVE;
forceField = "FlucQ";
forceFieldFileName = "FQ.frc";
cutoffMethod = "SHIFTED_FORCE";
electrostaticScreeningMethod = "DAMPED";
cutoffRadius = 10.0;
dampingAlpha = 0.17;

outputFluctuatingCharges = true;

targetTemp = 300;
targetPressure = 1.0;

tauThermostat = 1e3;
tauBarostat = 1e4;

dt = 0.25;
runTime = 1e3;

//tempSet = "true";
//thermalTime = 10;
sampleTime = 100;
statusTime = 0.5;
  </MetaData>
  <Snapshot>
    <FrameData>
        Time: 0
        Hmat: {{ 29.5666009942728, 0, 0 }, { 0, 29.5666009942728, 0 }, { 0, 0, 29.5666009942728 }}
    </FrameData>
    <StuntDoubles>
0	pq	-14.7833004971364 -14.7833004971364 -14.7833004971364 1 0 0 0
1	pq	-14.7833004971364 -12.319417080947 -12.319417080947 1 0 0 0
2	pq	-12.319417080947 -12.319417080947 -14.7833004971364 1 0 0 0
3	pq	-12.319417080947 -14.7833004971364 -12.319417080947 1 0 0 0
4	pq	-9.8555336647576 -14.7833004971364 -14.7833004971364 1 0 0 0
5	pq	-9.8555336647576 -12.319417080947 -12.319417080947 1 0 0 0
6	pq	-7.3916502485682 -12.319417080947 -14.7833004971364 1 0 0 0
7	pq	-7.3916502485682 -14.7833004971364 -12.319417080947 1 0 0 0
8	pq	-4.9277668323788 -14.7833004971364 -14.7833004971364 1 0 0 0
9	pq	-4.9277668323788 -12.319417080947 -12.319417080947 1 0 0 0
10	pq	-2.4638834161894 -12.319417080947 -14.7833004971364 1 0 0 0
11	pq	-2.4638834161894 -14.7833004971364 -12.319417080947 1 0 0 0
12	pq	0 -14.7833004971364 -14.7833004971364 1 0 0 0
13	pq	0 -12.319417080947 -12.319417080947 1 0 0 0
14	pq	2.4638834161894 -12.319417080947 -14.7833004971364 1 0 0 0
15	pq	2.4638834161894 -14.7833004971364 -12.319417080947 1 0 0 0
16	pq	4.9277668323788 -14.7833004971364 -14.7833004971364 1 0 0 0
17	pq	4.9277668323788 -12.319417080947 -12.319417080947 1 0 0 0
18	pq	7.3916502485682 -12.319417080947 -14.7833004971364 1 0 0 0
19	pq	7.3916502485682 -14.7833004971364 -12.319417080947 1 0 0 0
20	pq	9.85553366475759 -14.7833004971364 -14.7833004971364 1 0 0 0
21	pq	9.85553366475759 -12.319417080947 -12.319417080947 1 0 0 0
22	pq	12.319417080947 -12.319417080947 -14.7833004971364 1 0 0 0
23	pq	12.319417080947 -14.7833004971364 -12.319417080947 1 0 0 0
24	pq	-14.7833004971364 -9.8555336647576 -14.7833004971364 1 0 0 0
25	pq	-14.7833004971364 -7.3916502485682 -12.319417080947 1 0 0 0
26	pq	-12.319417080947 -7.3916502485682 -14.7833004971364 1 0 0 0
27	pq	-12.319417080947 -9.8555336647576 -12.319417080947 1 0 0 0
28	pq	-9.8555336647576 -9.8555336647576 -14.7833004971364 1 0 0 0
29	pq	-9.8555336647576 -7.3916502485682 -12.319417080947 1 0 0 0
30	pq	-7.3916502485682 -7.3916502485682 -14.7833004971364 1 0 0 0
31	pq	-7.3916502485682 -9.8555336647576 -12.319417080947 1 0 0 0
32	pq	-4.9277668323788 -9.8555336647576 -14.7833004971364 1 0 0 0
33	pq	-4.9277668323788 -7.3916502485682 -12.319417080947 1 0 0 0
34	pq	-2.4638834161894 -7.3916502485682 -14.7833004971364 1 0 0 0
35	pq	-2.4638834161894 -9.8555336647576 -12.319417080947 1 0 0 0
36	pq	0 -9.8555336647576 -14.7833004971364 1 0 0 0
37	pq	0 -7.3916502485682 -12.319417080947 1 0 0 0
38	pq	2.4638834161894 -7.3916502485682 -14.7833004971364 1 0 0 0
39	pq	2.4638834161894 -9.8555336647576 -12.319417080947 1 0 0 0
40	pq	4.9277668323788 -9.8555336647576 -14.7833004971364 1 0 0 0
41	pq	4.9277668323788 -7.3916502485682 -12.319417080947 1 0 0 0
42	pq	7.3916502485682 -7.3916502485682 -14.7833004971364 1 0 0 0
43	pq	7.3916502485682 -9.8555336647576 -12.319417080947 1 0 0 0
44	pq	9.85553366475759 -9.8555336647576 -14.7833004971364 1 0 0 0
45	pq	9.85553366475759 -7.3916502485682 -12.319417080947 1 0 0 0
46	pq	12.319417080947 -7.3916502485682 -14.7833004971364 1 0 0 0
47	pq	12.319417080947 -9.8555336647576 -12.319417080947 1 0 0 0
48	pq	-14.7833004971364 -4.9277668323788 -14.7833004971364 1 0 0 0
49	pq	-14.7833004971364 -2.4638834161894 -12.319417080947 1 0 0 0
50	pq	-12.319417080947 -2.4638834161894 -14.7833004971364 1 0 0 0
51	pq	-12.319417080947 -4.9277668323788 -12.319417080947 1 0 0 0
52	pq	-9.8555336647576 -4.9277668323788 -14.7833004971364 1 0 0 0
53	pq	-9.8555336647576 -2.4638834161894 -12.319417080947 1 0 0 0
54	pq	-7.3916502485682 -2.4638834161894 -14.7833004971364 1 0 0 0
55	pq	-7.3916502485682 -4.9277668323788 -12.319417080947 1 0 0 0
56	pq	-4.9277668323788 -4.9277668323788 -14.7833004971364 1 0 0 0
57	pq	-4.9277668323788 -2.4638834161894 -12.319417080947 1 0 0 0
58	pq	-2.4638834161894 -2.4638834161894 -14.7833004971364 1 0 0 0
59	pq	-2.4638834161894 -4.9277668323788 -12.319417080947 1 0 0 0
60	pq	0 -4.9277668323788 -14.7833004971364 1 0 0 0
61	pq	0 -2.4638834161894 -12.319417080947 1 0 0 0
62	pq	2.4638834161894 -2.4638834161894 -14.7833004971364 1 0 0 0
63	pq	2.4638834161894 -4.9277668323788 -12.319417080947 1 0 0 0
64	pq	4.9277668323788 -4.9277668323788 -14.7833004971364 1 0 0 0
65	pq	4.9277668323788 -2.4638834161894 -12.319417080947 1 0 0 0
66	pq	7.3916502485682 -2.4638834161894 -14.7833004971364 1 0 0 0
67	pq	7.3916502485682 -4.9277668323788 -12.319417080947 1 0 0 0
68	pq	9.85553366475759 -4.9277668323788 -14.7833004971364 1 0 0 0
69	pq	9.85553366475759 -2.4638834161894 -12.319417080947 1 0 0 0
70	pq	12.319417080947 -2.4638834161894 -14.7833004971364 1 0 0 0
71	pq	12.319417080947 -4.9277668323788 -12.319417080947 1 0 0 0
72	pq	-14.7833004971364 0 -14.7833004971364 1 0 0 0
73	pq	-14.7833004971364 2.4638834161894 -12.319417080947 1 0 0 0
74	pq	-12.319417080947 2.4638834161894 -14.7833004971364 1 0 0 0
75	pq	-12.319417080947 0 -12.319417080947 1 0 0 0
76	pq	-9.8555336647576 0 -14.7833004971364 1 0 0 0
77	pq	-9.8555336647576 2.4638834161894 -12.319417080947 1 0 0 0
78	pq	-7.3916502485682 2.4638834161894 -14.7833004971364 1 0 0 0
79	pq	-7.3916502485682 0 -12.319417080947 1 0 0 0
80	pq	-4.9277668323788 0 -14.7833004971364 1 0 0 0
81	pq	-4.9277668323788 2.4638834161894 -12.319417080947 1 0 0 0
82	pq	-2.4638834161894 2.4638834161894 -14.7833004971364 1 0 0 0
83	pq	-2.4638834161894 0 -12.319417080947 1 0 0 0
84	pq	0 0 -14.7833004971364 1 0 0 0
85	pq	0 2.4638834161894 -12.319417080947 1 0 0 0
86	pq	2.4638834161894 2.4638834161894 -14.7833004971364 1 0 0 0
87	pq	2.4638834161894 0 -12.319417080947 1 0 0 0
88	pq	4.9277668323788 0 -14.7833004971364 1 0 0 0
89	pq	4.9277668323788 2.4638834161894 -12.319417080947 1 0 0 0
90	pq	7.3916502485682 2.4638834161894 -14.7833004971364 1 0 0 0
91	pq	7.3916502485682 0 -12.319417080947 1 0 0 0
92	pq	9.85553366475759 0 -14.7833004971364 1 0 0 0
93	pq	9.85553366475759 2.4638834161894 -12.319417080947 1 0 0 0
94	pq	12.319417080947 2.4638834161894 -14.7833004971364 1 0 0 0
95	pq	12.319417080947 0 -12.319417080947 1 0 0 0
96	pq	-14.7833004971364 4.9277668323788 -14.7833004971364 1 0 0 0
97	pq	-14.7833004971364 7.3916502485682 -12.319417080947 1 0 0 0
98	pq	-12.319417080947 7.3916502485682 -14.7833004971364 1 0 0 0
99	pq	-12.319417080947 4.9277668323788 -12.319417080947 1 0 0 0
100	pq	-9.8555336647576 4.9277668323788 -14.7833004971364 1 0 0 0
101	pq	-9.8555336647576 7.3916502485682 -12.319417080947 1 0 0 0
102	pq	-7.3916502485682 7.3916502485682 -14.7833004971364 1 0 0 0
103	pq	-7.3916502485682 4.9277668323788 -12.319417080947 1 0 0 0
104	pq	-4.9277668323788 4.9277668323788 -14.7833004971364 1 0 0 0
105	pq	-4.9277668323788 7.3916502485682 -12.319417080947 1 0 0 0
106	pq	-2.4638834161894 7.3916502485682 -14.7833004971364 1 0 0 0
107	pq	-2.4638834161894 4.9277668323788 -12.319417080947 1 0 0 0
108	pq	0 4.9277668323788 -14.7833004971364 1 0 0 0
109	pq	0 7.3916502485682 -12.319417080947 1 0 0 0
110	pq	2.4638834161894 7.3916502485682 -14.7833004971364 1 0 0 0
111	pq	2.4638834161894 4.9277668323788 -12.319417080947 1 0 0 0
112	pq	4.9277668323788 4.9277668323788 -14.7833004971364 1 0 0 0
113	pq	4.9277668323788 7.3916502485682 -12.319417080947 1 0 0 0
114	pq	7.3916502485682 7.3916502485682 -14.7833004971364 1 0 0 0
115	pq	7.3916502485682 4.9277668323788 -12.319417080947 1 0 0 0
116	pq	9.85553366475759 4.9277668323788 -14.7833004971364 1 0 0 0
117	pq	9.85553366475759 7.3916502485682 -12.319417080947 1 0 0 0
118	pq	12.319417080947 7.3916502485682 -14.7833004971364 1 0 0 0
119	pq	12.319417080947 4.9277668323788 -12.319417080947 1 0 0 0
120	pq	-14.7833004971364 9.85553366475759 -14.7833004971364 1 0 0 0
121	pq	-14.7833004971364 12.319417080947 -12.319417080947 1 0 0 0
122	pq	-12.319417080947 12.319417080947 -14.7833004971364 1 0 0 0
123	pq	-12.319417080947 9.85553366475759 -12.319417080947 1 0 0 0
124	pq	-9.8555336647576 9.85553366475759 -14.7833004971364 1 0 0 0
125	pq	-9.8555336647576 12.319417080947 -12.319417080947 1 0 0 0
126	pq	-7.3916502485682 12.319417080947 -14.7833004971364 1 0 0 0
127	pq	-7.3916502485682 9.85553366475759 -12.319417080947 1 0 0 0
128	pq	-4.9277668323788 9.85553366475759 -14.7833004971364 1 0 0 0
129	pq	-4.9277668323788 12.319417080947 -12.319417080947 1 0 0 0
130	pq	-2.4638834161894 12.319417080947 -14.7833004971364 1 0 0 0
131	pq	-2.4638834161894 9.85553366475759 -12.319417080947 1 0 0 0
132	pq	0 9.85553366475759 -14.7833004971364 1 0 0 0
133	pq	0 12.319417080947 -12.319417080947 1 0 0 0
134	pq	2.4638834161894 12.319417080947 -14.7833004971364 1 0 0 0
135	pq	2.4638834161894 9.85553366475759 -12.319417080947 1 0 0 0
136	pq	4.9277668323788 9.85553366475759 -14.7833004971364 1 0 0 0
137	pq	4.9277668323788 12.319417080947 -12.319417080947 1 0 0 0
138	pq	7.3916502485682 12.319417080947 -14.7833004971364 1 0 0 0
139	pq	7.3916502485682 9.85553366475759 -12.319417080947 1 0 0 0
140	pq	9.85553366475759 9.85553366475759 -14.7833004971364 1 0 0 0
141	pq	9.85553366475759 12.319417080947 -12.319417080947 1 0 0 0
142	pq	12.319417080947 12.319417080947 -14.7833004971364 1 0 0 0
143	pq	12.319417080947 9.85553366475759 -12.319417080947 1 0 0 0
144	pq	-14.7833004971364 -14.7833004971364 -9.8555336647576 1 0 0 0
145	pq	-14.7833004971364 -12.319417080947 -7.3916502485682 1 0 0 0
146	pq	-12.319417080947 -12.319417080947 -9.8555336647576 1 0 0 0
147	pq	-12.319417080947 -14.7833004971364 -7.3916502485682 1 0 0 0
148	pq	-9.8555336647576 -14.7833004971364 -9.8555336647576 1 0 0 0
149	pq	-9.8555336647576 -12.319417080947 -7.3916502485682 1 0 0 0
150	pq	-7.3916502485682 -12.319417080947 -9.8555336647576 1 0 0 0
151	pq	-7.3916502485682 -14.7833004971364 -7.3916502485682 1 0 0 0
152	pq	-4.9277668323788 -14.7833004971364 -9.8555336647576 1 0 0 0
153	pq	-4.9277668323788 -12.319417080947 -7.3916502485682 1 0 0 0
154	pq	-2.4638834161894 -12.319417080947 -9.8555336647576 1 0 0 0
155	pq	-2.4638834161894 -14.7833004971364 -7.3916502485682 1 0 0 0
156	pq	0 -14.7833004971364 -9.8555336647576 1 0 0 0
157	pq	0 -12.319417080947 -7.3916502485682 1 0 0 0
158	pq	2.4638834161894 -12.319417080947 -9.8555336647576 1 0 0 0
159	pq	2.4638834161894 -14.7833004971364 -7.3916502485682 1 0 0 0
160	pq	4.9277668323788 -14.7833004971364 -9.8555336647576 1 0 0 0
161	pq	4.9277668323788 -12.319417080947 -7.3916502485682 1 0 0 0
162	pq	7.3916502485682 -12.319417080947 -9.8555336647576 1 0 0 0
163	pq	7.3916502485682 -14.7833004971364 -7.3916502485682 1 0 0 0
164	pq	9.85553366475759 -14.7833004971364 -9.8555336647576 1 0 0 0
165	pq	9.85553366475759 -12.319417080947 -7.3916502485682 1 0 0 0
166	pq	12.319417080947 -12.319417080947 -9.8555336647576 1 0 0 0
167	pq	12.319417080947 -14.7833004971364 -7.3916502485682 1 0 0 0
168	pq	-14.7833004971364 -9.8555336647576 -9.8555336647576 1 0 0 0
169	pq	-14.7833004971364 -7.3916502485682 -7.3916502485682 1 0 0 0
170	pq	-12.319417080947 -7.3916502485682 -9.8555336647576 1 0 0 0
171	pq	-12.319417080947 -9.8555336647576 -7.3916502485682 1 0 0 0
172	pq	-9.8555336647576 -9.8555336647576 -9.8555336647576 1 0 0 0
173	pq	-9.8555336647576 -7.3916502485682 -7.3916502485682 1 0 0 0
174	pq	-7.3916502485682 -7.3916502485682 -9.8555336647576 1 0 0 0
175	pq	-7.3916502485682 -9.8555336647576 -7.3916502485682 1 0 0 0
176	pq	-4.9277668323788 -9.8555336647576 -9.8555336647576 1 0 0 0
177	pq	-4.9277668323788 -7.3916502485682 -7.3916502485682 1 0 0 0
178	pq	-2.4638834161894 -7.3916502485682 -9.8555336647576 1 0 0 0
179	pq	-2.4638834161894 -9.8555336647576 -7.3916502485682 1 0 0 0
180	pq	0 -9.8555336647576 -9.8555336647576 1 0 0 0
181	pq	0 -7.3916502485682 -7.3916502485682 1 0 0 0
182	pq	2.4638834161894 -7.3916502485682 -9.8555336647576 1 0 0 0
183	pq	2.4638834161894 -9.8555336647576 -7.3916502485682 1 0 0 0
184	pq	4.9277668323788 -9.8555336647576 -9.8555336647576 1 0 0 0
185	pq	4.9277668323788 -7.3916502485682 -7.3916502485682 1 0 0 0
186	pq	7.3916502485682 -7.3916502485682 -9.8555336647576 1 0 0 0
187	pq	7.3916502485682 -9.8555336647576 -7.3916502485682 1 0 0 0
188	pq	9.85553366475759 -9.8555336647576 -9.8555336647576 1 0 0 0
189	pq	9.85553366475759 -7.3916502485682 -7.3916502485682 1 0 0 0
190	pq	12.319417080947 -7.3916502485682 -9.8555336647576 1 0 0 0
191	pq	12.319417080947 -9.8555336647576 -7.3916502485682 1 0 0 0
192	pq	-14.7833004971364 -4.9277668323788 -9.8555336647576 1 0 0 0
193	pq	-14.7833004971364 -2.4638834161894 -7.3916502485682 1 0 0 0
194	pq	-12.319417080947 -2.4638834161894 -9.8555336647576 1 0 0 0
195	pq	-12.319417080947 -4.9277668323788 -7.3916502485682 1 0 0 0
196	pq	-9.8555336647576 -4.9277668323788 -9.8555336647576 1 0 0 0
197	pq	-9.8555336647576 -2.4638834161894 -7.3916502485682 1 0 0 0
198	pq	-7.3916502485682 -2.4638834161894 -9.8555336647576 1 0 0 0
199	pq	-7.3916502485682 -4.9277668323788 -7.3916502485682 1 0 0 0
200	pq	-4.9277668323788 -4.9277668323788 -9.8555336647576 1 0 0 0
201	pq	-4.9277668323788 -2.4638834161894 -7.3916502485682 1 0 0 0
202	pq	-2.4638834161894 -2.4638834161894 -9.8555336647576 1 0 0 0
203	pq	-2.4638834161894 -4.9277668323788 -7.3916502485682 1 0 0 0
204	pq	0 -4.9277668323788 -9.8555336647576 1 0 0 0
205	pq	0 -2.4638834161894 -7.3916502485682 1 0 0 0
206	pq	2.4638834161894 -2.4638834161894 -9.8555336647576 1 0 0 0
207	pq	2.4638834161894 -4.9277668323788 -7.3916502485682 1 0 0 0
208	pq	4.9277668323788 -4.9277668323788 -9.8555336647576 1 0 0 0
209	pq	4.9277668323788 -2.4638834161894 -7.3916502485682 1 0 0 0
210	pq	7.3916502485682 -2.4638834161894 -9.8555336647576 1 0 0 0
211	pq	7.3916502485682 -4.9277668323788 -7.3916502485682 1 0 0 0
212	pq	9.85553366475759 -4.9277668323788 -9.8555336647576 1 0 0 0
213	pq	9.85553366475759 -2.4638834161894 -7.3916502485682 1 0 0 0
214	pq	12.319417080947 -2.4638834161894 -9.8555336647576 1 0 0 0
215	pq	12.319417080947 -4.9277668323788 -7.3916502485682 1 0 0 0
216	pq	-14.7833004971364 0 -9.8555336647576 1 0 0 0
217	pq	-14.7833004971364 2.4638834161894 -7.3916502485682 1 0 0 0
218	pq	-12.319417080947 2.4638834161894 -9.8555336647576 1 0 0 0
219	pq	-12.319417080947 0 -7.3916502485682 1 0 0 0
220	pq	-9.8555336647576 0 -9.8555336647576 1 0 0 0
221	pq	-9.8555336647576 2.4638834161894 -7.3916502485682 1 0 0 0
222	pq	-7.3916502485682 2.4638834161894 -9.8555336647576 1 0 0 0
223	pq	-7.3916502485682 0 -7.3916502485682 1 0 0 0
224	pq	-4.9277668323788 0 -9.8555336647576 1 0 0 0
225	pq	-4.9277668323788 2.4638834161894 -7.3916502485682 1 0 0 0
226	pq	-2.4638834161894 2.4638834161894 -9.8555336647576 1 0 0 0
227	pq	-2.4638834161894 0 -7.3916502485682 1 0 0 0
228	pq	0 0 -9.8555336647576 1 0 0 0
229	pq	0 2.4638834161894 -7.3916502485682 1 0 0 0
230	pq	2.4638834161894 2.4638834161894 -9.8555336647576 1 0 0 0
231	pq	2.4638834161894 0 -7.3916502485682 1 0 0 0
232	pq	4.9277668323788 0 -9.8555336647576 1 0 0 0
233	pq	4.9277668323788 2.4638834161894 -7.3916502485682 1 0 0 0
234	pq	7.3916502485682 2.4638834161894 -9.8555336647576 1 0 0 0
235	pq	7.3916502485682 0 -7.3916502485682 1 0 0 0
236	pq	9.85553366475759 0 -9.8555336647576 1 0 0 0
237	pq	9.85553366475759 2.4638834161894 -7.3916502485682 1 0 0 0
238	pq	12.319417080947 2.4638834161894 -9.8555336647576 1 0 0 0
239	pq	12.319417080947 0 -7.3916502485682 1 0 0 0
240	pq	-14.7833004971364 4.9277668323788 -9.8555336647576 1 0 0 0
241	pq	-14.7833004971364 7.3916502485682 -7.3916502485682 1 0 0 0
242	pq	-12.319417080947 7.3916502485682 -9.8555336647576 1 0 0 0
243	pq	-12.319417080947 4.9277668323788 -7.3916502485682 1 0 0 0
244	pq	-9.8555336647576 4.9277668323788 -9.8555336647576 1 0 0 0
245	pq	-9.8555336647576 7.3916502485682 -7.3916502485682 1 0 0 0
246	pq	-7.3916502485682 7.3916502485682 -9.8555336647576 1 0 0 0
247	pq	-7.3916502485682 4.9277668323788 -7.3916502485682 1 0 0 0
248	pq	-4.9277668323788 4.9277668323788 -9.8555336647576 1 0 0 0
249	pq	-4.9277668323788 7.3916502485682 -7.3916502485682 1 0 0 0
250	pq	-2.4638834161894 7.3916502485682 -9.8555336647576 1 0 0 0
251	pq	-2.4638834161894 4.9277668323788 -7.3916502485682 1 0 0 0
252	pq	0 4.9277668323788 -9.8555336647576 1 0 0 0
253	pq	0 7.3916502485682 -7.3916502485682 1 0 0 0
254	pq	2.4638834161894 7.3916502485682 -9.8555336647576 1 0 0 0
255	pq	2.4638834161894 4.9277668323788 -7.3916502485682 1 0 0 0
256	pq	4.9277668323788 4.9277668323788 -9.8555336647576 1 0 0 0
257	pq	4.9277668323788 7.3916502485682 -7.3916502485682 1 0 0 0
258	pq	7.3916502485682 7.3916502485682 -9.8555336647576 1 0 0 0
259	pq	7.3916502485682 4.9277668323788 -7.3916502485682 1 0 0 0
260	pq	9.85553366475759 4.9277668323788 -9.8555336647576 1 0 0 0
261	pq	9.85553366475759 7.3916502485682 -7.3916502485682 1 0 0 0
262	pq	12.319417080947 7.3916502485682 -9.8555336647576 1 0 0 0
263	pq	12.319417080947 4.9277668323788 -7.3916502485682 1 0 0 0
264	pq	-14.7833004971364 9.85553366475759 -9.8555336647576 1 0 0 0
265	pq	-14.7833004971364 12.319417080947 -7.3916502485682 1 0 0 0
266	pq	-12.319417080947 12.319417080947 -9.8555336647576 1 0 0 0
267	pq	-12.319417080947 9.85553366475759 -7.3916502485682 1 0 0 0
268	pq	-9.8555336647576 9.85553366475759 -9.8555336647576 1 0 0 0
269	pq	-9.8555336647576 12.319417080947 -7.3916502485682 1 0 0 0
270	pq	-7.3916502485682 12.319417080947 -9.8555336647576 1 0 0 0
271	pq	-7.3916502485682 9.85553366475759 -7.3916502485682 1 0 0 0
272	pq	-4.9277668323788 9.85553366475759 -9.8555336647576 1 0 0 0
273	pq	-4.9277668323788 12.319417080947 -7.3916502485682 1 0 0 0
274	pq	-2.4638834161894 12.319417080947 -9.8555336647576 1 0 0 0
275	pq	-2.4638834161894 9.85553366475759 -7.3916502485682 1 0 0 0
276	pq	0 9.85553366475759 -9.8555336647576 1 0 0 0
277	pq	0 12.319417080947 -7.3916502485682 1 0 0 0
278	pq	2.4638834161894 12.319417080947 -9.8555336647576 1 0 0 0
279	pq	2.4638834161894 9.85553366475759 -7.3916502485682 1 0 0 0
280	pq	4.9277668323788 9.85553366475759 -9.8555336647576 1 0 0 0
281	pq	4.9277668323788 12.319417080947 -7.3916502485682 1 0 0 0
282	pq	7.3916502485682 12.319417080947 -9.8555336647576 1 0 0 0
283	pq	7.3916502485682 9.85553366475759 -7.3916502485682 1 0 0 0
284	pq	9.85553366475759 9.85553366475759 -9.8555336647576 1 0 0 0
285	pq	9.85553366475759 12.319417080947 -7.3916502485682 1 0 0 0
286	pq	12.319417080947 12.319417080947 -9.8555336647576 1 0 0 0
287	pq	12.319417080947 9.85553366475759 -7.3916502485682 1 0 0 0
288	pq	-14.7833004971364 -14.7833004971364 -4.9277668323788 1 0 0 0
289	pq	-14.7833004971364 -12.319417080947 -2.4638834161894 1 0 0 0
290	pq	-12.319417080947 -12.319417080947 -4.9277668323788 1 0 0 0
291	pq	-12.319417080947 -14.7833004971364 -2.4638834161894 1 0 0 0
292	pq	-9.8555336647576 -14.7833004971364 -4.9277668323788 1 0 0 0
293	pq	-9.8555336647576 -12.319417080947 -2.4638834161894 1 0 0 0
294	pq	-7.3916502485682 -12.319417080947 -4.9277668323788 1 0 0 0
295	pq	-7.3916502485682 -14.7833004971364 -2.4638834161894 1 0 0 0
296	pq	-4.9277668323788 -14.7833004971364 -4.9277668323788 1 0 0 0
297	pq	-4.9277668323788 -12.319417080947 -2.4638834161894 1 0 0 0
298	pq	-2.4638834161894 -12.319417080947 -4.9277668323788 1 0 0 0
299	pq	-2.4638834161894 -14.7833004971364 -2.4638834161894 1 0 0 0
300	pq	0 -14.7833004971364 -4.9277668323788 1 0 0 0
301	pq	0 -12.319417080947 -2.4638834161894 1 0 0 0
302	pq	2.4638834161894 -12.319417080947 -4.9277668323788 1 0 0 0
303	pq	2.4638834161894 -14.7833004971364 -2.4638834161894 1 0 0 0
304	pq	4.9277668323788 -14.7833004971364 -4.9277668323788 1 0 0 0
305	pq	4.9277668323788 -12.319417080947 -2.4638834161894 1 0 0 0
306	pq	7.3916502485682 -12.319417080947 -4.9277668323788 1 0 0 0
307	pq	7.3916502485682 -14.7833004971364 -2.4638834161894 1 0 0 0
308	pq	9.85553366475759 -14.7833004971364 -4.9277668323788 1 0 0 0
309	pq	9.85553366475759 -12.319417080947 -2.4638834161894 1 0 0 0
310	pq	12.319417080947 -12.319417080947 -4.9277668323788 1 0 0 0
311	pq	12.319417080947 -14.7833004971364 -2.4638834161894 1 0 0 0
312	pq	-14.7833004971364 -9.8555336647576 -4.9277668323788 1 0 0 0
313	pq	-14.7833004971364 -7.3916502485682 -2.4638834161894 1 0 0 0
314	pq	-12.319417080947 -7.3916502485682 -4.9277668323788 1 0 0 0
315	pq	-12.319417080947 -9.8555336647576 -2.4638834161894 1 0 0 0
316	pq	-9.8555336647576 -9.8555336647576 -4.9277668323788 1 0 0 0
317	pq	-9.8555336647576 -7.3916502485682 -2.4638834161894 1 0 0 0
318	pq	-7.3916502485682 -7.3916502485682 -4.9277668323788 1 0 0 0
319	pq	-7.3916502485682 -9.8555336647576 -2.4638834161894 1 0 0 0
320	pq	-4.9277668323788 -9.8555336647576 -4.9277668323788 1 0 0 0
321	pq	-4.9277668323788 -7.3916502485682 -2.4638834161894 1 0 0 0
322	pq	-2.4638834161894 -7.3916502485682 -4.9277668323788 1 0 0 0
323	pq	-2.4638834161894 -9.8555336647576 -2.4638834161894 1 0 0 0
324	pq	0 -9.8555336647576 -4.9277668323788 1 0 0 0
325	pq	0 -7.3916502485682 -2.4638834161894 1 0 0 0
326	pq	2.4638834161894 -7.3916502485682 -4.9277668323788 1 0 0 0
327	pq	2.4638834161894 -9.8555336647576 -2.4638834161894 1 0 0 0
328	pq	4.9277668323788 -9.8555336647576 -4.9277668323788 1 0 0 0
329	pq	4.9277668323788 -7.3916502485682 -2.4638834161894 1 0 0 0
330	pq	7.3916502485682 -7.3916502485682 -4.9277668323788 1 0 0 0
331	pq	7.3916502485682 -9.8555336647576 -2.4638834161894 1 0 0 0
332	pq	9.85553366475759 -9.8555336647576 -4.9277668323788 1 0 0 0
333	pq	9.85553366475759 -7.3916502485682 -2.4638834161894 1 0 0 0
334	pq	12.319417080947 -7.3916502485682 -4.9277668323788 1 0 0 0
335	pq	12.319417080947 -9.8555336647576 -2.4638834161894 1 0 0 0
336	pq	-14.7833004971364 -4.9277668323788 -4.9277668323788 1 0 0 0
337	pq	-14.7833004971364 -2.4638834161894 -2.4638834161894 1 0 0 0
338	pq	-12.319417080947 -2.4638834161894 -4.9277668323788 1 0 0 0
339	pq	-12.319417080947 -4.9277668323788 -2.4638834161894 1 0 0 0
340	pq	-9.8555336647576 -4.9277668323788 -4.9277668323788 1 0 0 0
341	pq	-9.8555336647576 -2.4638834161894 -2.4638834161894 1 0 0 0
342	pq	-7.3916502485682 -2.4638834161894 -4.9277668323788 1 0 0 0
343	pq	-7.3916502485682 -4.9277668323788 -2.4638834161894 1 0 0 0
344	pq	-4.9277668323788 -4.9277668323788 -4.9277668323788 1 0 0 0
345	pq	-4.9277668323788 -2.4638834161894 -2.4638834161894 1 0 0 0
346	pq	-2.4638834161894 -2.4638834161894 -4.9277668323788 1 0 0 0
347	pq	-2.4638834161894 -4.9277668323788 -2.4638834161894 1 0 0 0
348	pq	0 -4.9277668323788 -4.9277668323788 1 0 0 0
349	pq	0 -2.4638834161894 -2.4638834161894 1 0 0 0
350	pq	2.4638834161894 -2.4638834161894 -4.9277668323788 1 0 0 0
351	pq	2.4638834161894 -4.9277668323788 -2.4638834161894 1 0 0 0
352	pq	4.9277668323788 -4.9277668323788 -4.9277668323788 1 0 0 0
353	pq	4.9277668323788 -2.4638834161894 -2.4638834161894 1 0 0 0
354	pq	7.3916502485682 -2.4638834161894 -4.9277668323788 1 0 0 0
355	pq	7.3916502485682 -4.9277668323788 -2.4638834161894 1 0 0 0
356	pq	9.85553366475759 -4.9277668323788 -4.9277668323788 1 0 0 0
357	pq	9.85553366475759 -2.4638834161894 -2.4638834161894 1 0 0 0
358	pq	12.319417080947 -2.4638834161894 -4.9277668323788 1 0 0 0
359	pq	12.319417080947 -4.9277668323788 -2.4638834161894 1 0 0 0
360	pq	-14.7833004971364 0 -4.9277668323788 1 0 0 0
361	pq	-14.7833004971364 2.4638834161894 -2.4638834161894 1 0 0 0
362	pq	-12.319417080947 2.4638834161894 -4.9277668323788 1 0 0 0
363	pq	-12.319417080947 0 -2.4638834161894 1 0 0 0
364	pq	-9.8555336647576 0 -4.9277668323788 1 0 0 0
365	pq	-9.8555336647576 2.4638834161894 -2.4638834161894 1 0 0 0
366	pq	-7.3916502485682 2.4638834161894 -4.9277668323788 1 0 0 0
367	pq	-7.3916502485682 0 -2.4638834161894 1 0 0 0
368	pq	-4.9277668323788 0 -4.9277668323788 1 0 0 0
369	pq	-4.9277668323788 2.4638834161894 -2.4638834161894 1 0 0 0
370	pq	-2.4638834161894 2.4638834161894 -4.9277668323788 1 0 0 0
371	pq	-2.4638834161894 0 -2.4638834161894 1 0 0 0
372	pq	0 0 -4.9277668323788 1 0 0 0
373	pq	0 2.4638834161894 -2.4638834161894 1 0 0 0
374	pq	2.4638834161894 2.4638834161894 -4.9277668323788 1 0 0 0
375	pq	2.4638834161894 0 -2.4638834161894 1 0 0 0
376	pq	4.9277668323788 0 -4.9277668323788 1 0 0 0
377	pq	4.9277668323788 2.4638834161894 -2.4638834161894 1 0 0 0
378	pq	7.3916502485682 2.4638834161894 -4.9277668323788 1 0 0 0
379	pq	7.3916502485682 0 -2.4638834161894 1 0 0 0
380	pq	9.85553366475759 0 -4.9277668323788 1 0 0 0
381	pq	9.85553366475759 2.4638834161894 -2.4638834161894 1 0 0 0
382	pq	12.319417080947 2.4638834161894 -4.9277668323788 1 0 0 0
383	pq	12.319417080947 0 -2.4638834161894 1 0 0 0
384	pq	-14.7833004971364 4.9277668323788 -4.9277668323788 1 0 0 0
385	pq	-14.7833004971364 7.3916502485682 -2.4638834161894 1 0 0 0
386	pq	-12.319417080947 7.3916502485682 -4.9277668323788 1 0 0 0
387	pq	-12.319417080947 4.9277668323788 -2.4638834161894 1 0 0 0
388	pq	-9.8555336647576 4.9277668323788 -4.9277668323788 1 0 0 0
389	pq	-9.8555336647576 7.3916502485682 -2.4638834161894 1 0 0 0
390	pq	-7.3916502485682 7.3916502485682 -4.9277668323788 1 0 0 0
391	pq	-7.3916502485682 4.9277668323788 -2.4638834161894 1 0 0 0
392	pq	-4.9277668323788 4.9277668323788 -4.9277668323788 1 0 0 0
393	pq	-4.9277668323788 7.3916502485682 -2.4638834161894 1 0 0 0
394	pq	-2.4638834161894 7.3916502485682 -4.9277668323788 1 0 0 0
395	pq	-2.4638834161894 4.9277668323788 -2.4638834161894 1 0 0 0
396	pq	0 4.9277668323788 -4.9277668323788 1 0 0 0
397	pq	0 7.3916502485682 -2.4638834161894 1 0 0 0
398	pq	2.4638834161894 7.3916502485682 -4.9277668323788 1 0 0 0
399	pq	2.4638834161894 4.9277668323788 -2.4638834161894 1 0 0 0
400	pq	4.9277668323788 4.9277668323788 -4.9277668323788 1 0 0 0
401	pq	4.9277668323788 7.3916502485682 -2.4638834161894 1 0 0 0
402	pq	7.3916502485682 7.3916502485682 -4.9277668323788 1 0 0 0
403	pq	7.3916502485682 4.9277668323788 -2.4638834161894 1 0 0 0
404	pq	9.85553366475759 4.9277668323788 -4.9277668323788 1 0 0 0
405	pq	9.85553366475759 7.3916502485682 -2.4638834161894 1 0 0 0
406	pq	12.319417080947 7.3916502485682 -4.9277668323788 1 0 0 0
407	pq	12.319417080947 4.9277668323788 -2.4638834161894 1 0 0 0
408	pq	-14.7833004971364 9.85553366475759 -4.9277668323788 1 0 0 0
409	pq	-14.7833004971364 12.319417080947 -2.4638834161894 1 0 0 0
410	pq	-12.319417080947 12.319417080947 -4.9277668323788 1 0 0 0
411	pq	-12.319417080947 9.85553366475759 -2.4638834161894 1 0 0 0
412	pq	-9.8555336647576 9.85553366475759 -4.9277668323788 1 0 0 0
413	pq	-9.8555336647576 12.319417080947 -2.4638834161894 1 0 0 0
414	pq	-7.3916502485682 12.319417080947 -4.9277668323788 1 0 0 0
415	pq	-7.3916502485682 9.85553366475759 -2.4638834161894 1 0 0 0
416	pq	-4.9277668323788 9.85553366475759 -4.9277668323788 1 0 0 0
417	pq	-4.9277668323788 12.319417080947 -2.4638834161894 1 0 0 0
418	pq	-2.4638834161894 12.319417080947 -4.9277668323788 1 0 0 0
419	pq	-2.4638834161894 9.85553366475759 -2.4638834161894 1 0 0 0
420	pq	0 9.85553366475759 -4.9277668323788 1 0 0 0
421	pq	0 12.319417080947 -2.4638834161894 1 0 0 0
422	pq	2.4638834161894 12.319417080947 -4.9277668323788 1 0 0 0
423	pq	2.4638834161894 9.85553366475759 -2.4638834161894 1 0 0 0
424	pq	4.9277668323788 9.85553366475759 -4.9277668323788 1 0 0 0
425	pq	4.9277668323788 12.319417080947 -2.4638834161894 1 0 0 0
426	pq	7.3916502485682 12.319417080947 -4.9277668323788 1 0 0 0
427	pq	7.3916502485682 9.85553366475759 -2.4638834161894 1 0 0 0
428	pq	9.85553366475759 9.85553366475759 -4.9277668323788 1 0 0 0
429	pq	9.85553366475759 12.319417080947 -2.4638834161894 1 0 0 0
430	pq	12.319417080947 12.319417080947 -4.9277668323788 1 0 0 0
431	pq	12.319417080947 9.85553366475759 -2.4638834161894 1 0 0 0
432	pq	-14.7833004971364 -14.7833004971364 0 1 0 0 0
433	pq	-14.7833004971364 -12.319417080947 2.4638834161894 1 0 0 0
434	pq	-12.319417080947 -12.319417080947 0 1 0 0 0
435	pq	-12.319417080947 -14.7833004971364 2.4638834161894 1 0 0 0
436	pq	-9.8555336647576 -14.7833004971364 0 1 0 0 0
437	pq	-9.8555336647576 -12.319417080947 2.4638834161894 1 0 0 0
438	pq	-7.3916502485682 -12.319417080947 0 1 0 0 0
439	pq	-7.3916502485682 -14.7833004971364 2.4638834161894 1 0 0 0
440	pq	-4.9277668323788 -14.7833004971364 0 1 0 0 0
441	pq	-4.9277668323788 -12.319417080947 2.4638834161894 1 0 0 0
442	pq	-2.4638834161894 -12.319417080947 0 1 0 0 0
443	pq	-2.4638834161894 -14.7833004971364 2.4638834161894 1 0 0 0
444	pq	0 -14.7833004971364 0 1 0 0 0
445	pq	0 -12.319417080947 2.4638834161894 1 0 0 0
446	pq	2.4638834161894 -12.319417080947 0 1 0 0 0
447	pq	2.4638834161894 -14.7833004971364 2.4638834161894 1 0 0 0
448	pq	4.9277668323788 -14.7833004971364 0 1 0 0 0
449	pq	4.9277668323788 -12.319417080947 2.4638834161894 1 0 0 0
450	pq	7.3916502485682 -12.319417080947 0 1 0 0 0
451	pq	7.3916502485682 -14.7833004971364 2.4638834161894 1 0 0 0
452	pq	9.85553366475759 -14.7833004971364 0 1 0 0 0
453	pq	9.85553366475759 -12.319417080947 2.4638834161894 1 0 0 0
454	pq	12.319417080947 -12.319417080947 0 1 0 0 0
455	pq	12.319417080947 -14.7833004971364 2.4638834161894 1 0 0 0
456	pq	-14.7833004971364 -9.8555336647576 0 1 0 0 0
457	pq	-14.7833004971364 -7.3916502485682 2.4638834161894 1 0 0 0
458	pq	-12.319417080947 -7.3916502485682 0 1 0 0 0
459	pq	-12.319417080947 -9.8555336647576 2.4638834161894 1 0 0 0
460	pq	-9.8555336647576 -9.8555336647576 0 1 0 0 0