<OpenMD version=1>
  <MetaData>


molecule{
  name = "SPCE";
  
  atom[0]{
    type = "O_SPCE";
    position( 0.0, 0.0, -0.06461 );
  }
  atom[1]{
    type = "H_SPCE";
    position( 0.0, 0.81649, 0.51275 );
  }
  atom[2]{
    type = "H_SPCE";
    position( 0.0, -0.81649, 0.51275 );
  }
  
  rigidBody[0]{
    members(0, 1, 2);
  }

}

component{
  type = "SPCE";
  nMol = 360;
}

ensemble = NPTxyz;
forceField = "Water";
electrostaticSummationMethod = "shifted_force";
electrostaticScreeningMethod = "damped";
cutoffRadius = 9;
switchingRadius = 9;
dampingAlpha = 0.18;

targetTemp = 10;
targetPressure = 1.0;

tauThermostat = 1e3;
tauBarostat = 1e4;

dt = 2.0;
runTime = 1e5;

tempSet = "false";
thermalTime = 10;
sampleTime = 100;
statusTime = 2;
resetTime = 10;

printPressureTensor = "true";


  </MetaData>
  <Snapshot>
    <FrameData>
        Time: 0
        Hmat: {{ 40.56355, 0, 0 }, { 0, 39.03229, 0 }, { 0, 0, 7.36000 }}
    </FrameData>
    <StuntDoubles>
         0    pvqj        1.173135683        1.274310384        1.417858351  0.000000e+00  0.000000e+00  0.000000e+00  2.298489e-01  4.440414e-01 -1.189820e-01  8.578162e-01  0.000000e+00  0.000000e+00  0.000000e+00
         1    pvqj             3.3803        2.655689792        2.337857792  0.000000e+00  0.000000e+00  0.000000e+00  0.000000e+00  0.000000e+00  4.597029e-01  8.880728e-01  0.000000e+00  0.000000e+00  0.000000e+00
         2    pvqj        1.080403198        1.327849057        6.017857792  0.000000e+00  0.000000e+00  0.000000e+00  4.440370e-01  2.298564e-01 -3.981108e-01 -7.690933e-01  0.000000e+00  0.000000e+00  0.000000e+00
         3    pvqj        3.333933758        2.628919616        5.097858351  0.000000e+00  0.000000e+00  0.000000e+00  2.298511e-01 -4.440344e-01  1.189789e-01  8.578146e-01  0.000000e+00  0.000000e+00  0.000000e+00
         4    pvqj        3.380299441        5.257848114        1.417858351  0.000000e+00  0.000000e+00  0.000000e+00  6.279654e-01 -3.250529e-01  3.250495e-01  6.279654e-01  0.000000e+00  0.000000e+00  0.000000e+00
         5    pvqj        1.080403198        6.532149616        2.262141649  0.000000e+00  0.000000e+00  0.000000e+00  1.189781e-01 -8.578150e-01  2.298488e-01  4.440366e-01  0.000000e+00  0.000000e+00  0.000000e+00
         6    pvqj        3.333933758        5.231079057        6.017857792  0.000000e+00  0.000000e+00  0.000000e+00  4.440379e-01  2.298531e-01 -3.981105e-01 -7.690942e-01  0.000000e+00  0.000000e+00  0.000000e+00
         7    pvqj            1.12677        6.558919233        5.022142208  0.000000e+00  0.000000e+00  0.000000e+00  4.597006e-01 -8.880739e-01  0.000000e+00  0.000000e+00  0.000000e+00  0.000000e+00  0.000000e+00
         8    pvqj        1.173135683        9.134309057        1.342142208  0.000000e+00  0.000000e+00  0.000000e+00  3.981106e-01 -7.690974e-01  4.440349e-01 -2.298544e-01  0.000000e+00  0.000000e+00  0.000000e+00
         9    pvqj             3.3803        10.46214923        2.337857792  0.000000e+00  0.000000e+00  0.000000e+00  0.000000e+00  0.000000e+00  4.597006e-01  8.880739e-01  0.000000e+00  0.000000e+00  0.000000e+00
        10    pvqj        1.126769441        9.161078114        5.942141649  0.000000e+00  0.000000e+00  0.000000e+00  3.250529e-01 -6.279654e-01  6.279589e-01  3.250529e-01  0.000000e+00  0.000000e+00  0.000000e+00
        11    pvqj        3.426665683        10.43537962        5.097858351  0.000000e+00  0.000000e+00  0.000000e+00  2.298489e-01 -4.440414e-01 -1.189820e-01 -8.578162e-01  0.000000e+00  0.000000e+00  0.000000e+00
        12    pvqj        3.426665683        13.03753018        1.342142208  0.000000e+00  0.000000e+00  0.000000e+00  3.981152e-01 -7.690975e-01  4.440321e-01 -2.298480e-01  0.000000e+00  0.000000e+00  0.000000e+00
        13    pvqj        1.126769441        14.25830077        2.262141649  0.000000e+00  0.000000e+00  0.000000e+00  3.250560e-01  6.279638e-01 -6.279704e-01  3.250560e-01  0.000000e+00  0.000000e+00  0.000000e+00
        14    pvqj        3.380299441        13.06429923        5.942141649  0.000000e+00  0.000000e+00  0.000000e+00  3.250560e-01 -6.279638e-01  6.279573e-01  3.250560e-01  0.000000e+00  0.000000e+00  0.000000e+00
        15    pvqj            1.12677        14.36537923        5.022142208  0.000000e+00  0.000000e+00  0.000000e+00  4.597006e-01 -8.880739e-01  0.000000e+00  0.000000e+00  0.000000e+00  0.000000e+00  0.000000e+00
        16    pvqj            1.12677        16.86045133        1.342142208  0.000000e+00  0.000000e+00  0.000000e+00  0.000000e+00  0.000000e+00  8.880739e-01 -4.597007e-01  0.000000e+00  0.000000e+00  0.000000e+00
        17    pvqj        3.380299441        18.16153077        2.262141649  0.000000e+00  0.000000e+00  0.000000e+00  3.250560e-01  6.279638e-01 -6.279704e-01  3.250560e-01  0.000000e+00  0.000000e+00  0.000000e+00
        18    pvqj        1.126769441        16.96752923        5.942141649  0.000000e+00  0.000000e+00  0.000000e+00  3.250560e-01 -6.279638e-01  6.279573e-01  3.250560e-01  0.000000e+00  0.000000e+00  0.000000e+00
        19    pvqj        3.426665683        18.18830038        5.022142208  0.000000e+00  0.000000e+00  0.000000e+00  2.298456e-01 -4.440465e-01  7.691024e-01 -3.981235e-01  0.000000e+00  0.000000e+00  0.000000e+00
        20    pvqj             3.3803        20.76368133        1.342142208  0.000000e+00  0.000000e+00  0.000000e+00  0.000000e+00  0.000000e+00  8.880739e-01 -4.597007e-01  0.000000e+00  0.000000e+00  0.000000e+00
        21    pvqj        1.126769441        22.06476077        2.262141649  0.000000e+00  0.000000e+00  0.000000e+00  3.250560e-01  6.279638e-01 -6.279704e-01  3.250560e-01  0.000000e+00  0.000000e+00  0.000000e+00
        22    pvqj        3.333933758        20.79045038        5.942141649  0.000000e+00  0.000000e+00  0.000000e+00  4.440344e-01  2.298511e-01 -8.578146e-01  1.189789e-01  0.000000e+00  0.000000e+00  0.000000e+00
        23    pvqj            1.12677        22.17183923        5.022142208  0.000000e+00  0.000000e+00  0.000000e+00  4.597006e-01 -8.880739e-01  0.000000e+00  0.000000e+00  0.000000e+00  0.000000e+00  0.000000e+00
        24    pvqj        1.173135683        24.69368038        1.417858351  0.000000e+00  0.000000e+00  0.000000e+00  2.298489e-01  4.440414e-01 -1.189820e-01  8.578162e-01  0.000000e+00  0.000000e+00  0.000000e+00
        25    pvqj             3.3803        26.07506867        2.337857792  0.000000e+00  0.000000e+00  0.000000e+00  1.042165e-03  7.369227e-04  0.000000e+00  0.000000e+00  0.000000e+00  0.000000e+00  0.000000e+00
        26    pvqj        1.080403198        24.74722018        6.017857792  0.000000e+00  0.000000e+00  0.000000e+00  4.440329e-01  2.298505e-01 -3.981165e-01 -7.690970e-01  0.000000e+00  0.000000e+00  0.000000e+00
        27    pvqj        3.333933758        26.04829962        5.097858351  0.000000e+00  0.000000e+00  0.000000e+00  2.298511e-01 -4.440344e-01  1.189789e-01  8.578146e-01  0.000000e+00  0.000000e+00  0.000000e+00
        28    pvqj        3.380299441        28.67721923        1.417858351  0.000000e+00  0.000000e+00  0.000000e+00  6.279638e-01 -3.250560e-01  3.250526e-01  6.279638e-01  0.000000e+00  0.000000e+00  0.000000e+00
        29    pvqj            1.12677        29.97829867        2.337857792  0.000000e+00  0.000000e+00  0.000000e+00  1.042165e-03  7.369227e-04  0.000000e+00  0.000000e+00  0.000000e+00  0.000000e+00  0.000000e+00
        30    pvqj        3.333933758        28.65045018        6.017857792  0.000000e+00  0.000000e+00  0.000000e+00  4.440338e-01  2.298472e-01 -3.981162e-01 -7.690978e-01  0.000000e+00  0.000000e+00  0.000000e+00
        31    pvqj        1.080403198        29.95152962        5.097858351  0.000000e+00  0.000000e+00  0.000000e+00  2.298484e-01 -4.440370e-01  1.189783e-01  8.578143e-01  0.000000e+00  0.000000e+00  0.000000e+00
        32    pvqj        1.126769441        32.58044923        1.417858351  0.000000e+00  0.000000e+00  0.000000e+00  6.279638e-01 -3.250560e-01  3.250526e-01  6.279638e-01  0.000000e+00  0.000000e+00  0.000000e+00
        33    pvqj        3.426665683        33.85475962        2.262141649  0.000000e+00  0.000000e+00  0.000000e+00  1.189771e-01 -8.578325e-01 -2.298583e-01 -4.440329e-01  0.000000e+00  0.000000e+00  0.000000e+00
        34    pvqj        1.173135683        32.55367962        6.017857792  0.000000e+00  0.000000e+00  0.000000e+00  4.440377e-01  2.298501e-01  3.981117e-01  7.690899e-01  0.000000e+00  0.000000e+00  0.000000e+00
        35    pvqj             3.3803        33.88152867        5.022142208  0.000000e+00  0.000000e+00  0.000000e+00  4.597007e-01 -8.880739e-01  0.000000e+00  0.000000e+00  0.000000e+00  0.000000e+00  0.000000e+00
        36    pvqj        3.380299441        36.48367923        1.417858351  0.000000e+00  0.000000e+00  0.000000e+00  6.279638e-01 -3.250560e-01  3.250526e-01  6.279638e-01  0.000000e+00  0.000000e+00  0.000000e+00
        37    pvqj        1.080403198        37.70445038        2.337857792  0.000000e+00  0.000000e+00  0.000000e+00  7.690927e-01  3.981143e-01 -2.298528e-01 -4.440372e-01  0.000000e+00  0.000000e+00  0.000000e+00
        38    pvqj        3.426665683        36.45690962        6.017857792  0.000000e+00  0.000000e+00  0.000000e+00  4.440377e-01  2.298501e-01  3.981117e-01  7.690899e-01  0.000000e+00  0.000000e+00  0.000000e+00
        39    pvqj        1.173135683        37.75798962        5.097858351  0.000000e+00  0.000000e+00  0.000000e+00  2.298489e-01 -4.440414e-01 -1.189820e-01 -8.578162e-01  0.000000e+00  0.000000e+00  0.000000e+00
        40    pvqj        5.587463758        1.274310384        1.417858351  0.000000e+00  0.000000e+00  0.000000e+00  8.578146e-01  1.189789e-01 -4.440344e-01  2.298511e-01  0.000000e+00  0.000000e+00  0.000000e+00
        41    pvqj            7.88736        2.548610767        2.262141649  0.000000e+00  0.000000e+00  0.000000e+00  3.250560e-01  6.279638e-01 -6.279638e-01  3.250560e-01  0.000000e+00  0.000000e+00  0.000000e+00
        42    pvqj        5.587463758        1.327849057        6.017857792  0.000000e+00  0.000000e+00  0.000000e+00  4.440379e-01  2.298531e-01 -3.981105e-01 -7.690942e-01  0.000000e+00  0.000000e+00  0.000000e+00
        43    pvqj        7.840993758        2.575380943        5.022142208  0.000000e+00  0.000000e+00  0.000000e+00  2.298530e-01 -4.440380e-01 -7.690944e-01  3.981107e-01  0.000000e+00  0.000000e+00  0.000000e+00
        44    pvqj        7.840993758        5.177540384        1.417858351  0.000000e+00  0.000000e+00  0.000000e+00  8.578146e-01  1.189789e-01 -4.440344e-01  2.298511e-01  0.000000e+00  0.000000e+00  0.000000e+00
        45    pvqj            5.63383        6.558919233        2.337857792  0.000000e+00  0.000000e+00  0.000000e+00  0.000000e+00  0.000000e+00  4.597006e-01  8.880739e-01  0.000000e+00  0.000000e+00  0.000000e+00
        46    pvqj            7.88736        5.150770208        6.017857792  0.000000e+00  0.000000e+00  0.000000e+00  8.880728e-01  4.597029e-01  0.000000e+00  0.000000e+00  0.000000e+00  0.000000e+00  0.000000e+00
        47    pvqj        5.633829441        6.451840767        5.097858351  0.000000e+00  0.000000e+00  0.000000e+00  6.279638e-01  3.250560e-01 -3.250594e-01  6.279638e-01  0.000000e+00  0.000000e+00  0.000000e+00
        48    pvqj        5.633829441        9.161078114        1.417858351  0.000000e+00  0.000000e+00  0.000000e+00  6.279654e-01 -3.250529e-01  3.250495e-01  6.279654e-01  0.000000e+00  0.000000e+00  0.000000e+00
        49    pvqj        7.933726242        10.43537962        2.262141649  0.000000e+00  0.000000e+00  0.000000e+00  1.189789e-01 -8.578146e-01 -2.298511e-01 -4.440344e-01  0.000000e+00  0.000000e+00  0.000000e+00
        50    pvqj            5.63383        9.054000208        6.017857792  0.000000e+00  0.000000e+00  0.000000e+00  8.880728e-01  4.597029e-01  0.000000e+00  0.000000e+00  0.000000e+00  0.000000e+00  0.000000e+00
        51    pvqj        7.840993758        10.38184094        5.022142208  0.000000e+00  0.000000e+00  0.000000e+00  2.298530e-01 -4.440380e-01 -7.690944e-01  3.981107e-01  0.000000e+00  0.000000e+00  0.000000e+00
        52    pvqj        7.933726242        13.03753018        1.342142208  0.000000e+00  0.000000e+00  0.000000e+00  3.981151e-01 -7.690944e-01  4.440350e-01 -2.298467e-01  0.000000e+00  0.000000e+00  0.000000e+00
        53    pvqj        5.680196242        14.33860962        2.262141649  0.000000e+00  0.000000e+00  0.000000e+00  1.189789e-01 -8.578146e-01 -2.298511e-01 -4.440344e-01  0.000000e+00  0.000000e+00  0.000000e+00
        54    pvqj        7.933726242         12.9839915        5.942141649  0.000000e+00  0.000000e+00  0.000000e+00  1.189783e-01  8.577888e-01 -2.298359e-01  4.440323e-01  0.000000e+00  0.000000e+00  0.000000e+00
        55    pvqj        5.680196242        14.28507094        5.022142208  0.000000e+00  0.000000e+00  0.000000e+00  2.298530e-01 -4.440380e-01  7.690944e-01 -3.981107e-01  0.000000e+00  0.000000e+00  0.000000e+00
        56    pvqj        5.680196242        16.94076018        1.342142208  0.000000e+00  0.000000e+00  0.000000e+00  3.981151e-01 -7.690944e-01  4.440350e-01 -2.298467e-01  0.000000e+00  0.000000e+00  0.000000e+00
        57    pvqj        7.933726242        18.24183962        2.262141649  0.000000e+00  0.000000e+00  0.000000e+00  1.189789e-01 -8.578146e-01 -2.298511e-01 -4.440344e-01  0.000000e+00  0.000000e+00  0.000000e+00
        58    pvqj        5.680196242        16.88722094        5.942141649  0.000000e+00  0.000000e+00  0.000000e+00  1.189793e-01  8.577964e-01 -2.298421e-01  4.440332e-01  0.000000e+00  0.000000e+00  0.000000e+00
        59    pvqj            7.88736        18.26860923        5.022142208  0.000000e+00  0.000000e+00  0.000000e+00  4.597006e-01 -8.880739e-01  0.000000e+00  0.000000e+00  0.000000e+00  0.000000e+00  0.000000e+00
        60    pvqj        7.840993758        20.84399018        1.342142208  0.000000e+00  0.000000e+00  0.000000e+00  3.981151e-01 -7.690944e-01 -4.440350e-01  2.298467e-01  0.000000e+00  0.000000e+00  0.000000e+00
        61    pvqj        5.587463758        22.14506962        2.262141649  0.000000e+00  0.000000e+00  0.000000e+00  1.189789e-01 -8.578146e-01  2.298511e-01  4.440344e-01  0.000000e+00  0.000000e+00  0.000000e+00
        62    pvqj            7.88736        20.87075923        5.942141649  0.000000e+00  0.000000e+00  0.000000e+00  3.250560e-01 -6.279638e-01  6.279638e-01  3.250560e-01  0.000000e+00  0.000000e+00  0.000000e+00
        63    pvqj        5.587463758        22.09153038        5.022142208  0.000000e+00  0.000000e+00  0.000000e+00  2.298495e-01 -4.440387e-01 -7.690937e-01  3.981142e-01  0.000000e+00  0.000000e+00  0.000000e+00
        64    pvqj        5.587463758        24.74722018        1.342142208  0.000000e+00  0.000000e+00  0.000000e+00  3.981151e-01 -7.690944e-01 -4.440350e-01  2.298467e-01  0.000000e+00  0.000000e+00  0.000000e+00
        65    pvqj        7.840993758        25.99476038        2.337857792  0.000000e+00  0.000000e+00  0.000000e+00  7.690933e-01  3.981139e-01 -2.298496e-01 -4.440382e-01  0.000000e+00  0.000000e+00  0.000000e+00
        66    pvqj        5.587463758        24.69368038        5.942141649  0.000000e+00  0.000000e+00  0.000000e+00  4.440344e-01  2.298511e-01 -8.578146e-01  1.189789e-01  0.000000e+00  0.000000e+00  0.000000e+00
        67    pvqj        7.840993758        26.04829962        5.097858351  0.000000e+00  0.000000e+00  0.000000e+00  2.298511e-01 -4.440344e-01  1.189789e-01  8.578146e-01  0.000000e+00  0.000000e+00  0.000000e+00
        68    pvqj        7.933726242        28.59691038        1.417858351  0.000000e+00  0.000000e+00  0.000000e+00  2.298511e-01  4.440344e-01 -1.189789e-01  8.578146e-01  0.000000e+00  0.000000e+00  0.000000e+00
        69    pvqj        5.680196242        29.89799038        2.337857792  0.000000e+00  0.000000e+00  0.000000e+00  7.690933e-01  3.981139e-01  2.298496e-01  4.440382e-01  0.000000e+00  0.000000e+00  0.000000e+00
        70    pvqj        7.933726242        28.65045018        6.017857792  0.000000e+00  0.000000e+00  0.000000e+00  4.440338e-01  2.298472e-01  3.981162e-01  7.690978e-01  0.000000e+00  0.000000e+00  0.000000e+00
        71    pvqj        5.633829441        29.87122077        5.097858351  0.000000e+00  0.000000e+00  0.000000e+00  6.279638e-01  3.250560e-01 -3.250594e-01  6.279638e-01  0.000000e+00  0.000000e+00  0.000000e+00
        72    pvqj            5.63383        32.47337133        1.342142208  0.000000e+00  0.000000e+00  0.000000e+00  0.000000e+00  0.000000e+00  8.880739e-01 -4.597007e-01  0.000000e+00  0.000000e+00  0.000000e+00
        73    pvqj        7.840993758        33.80122038        2.337857792  0.000000e+00  0.000000e+00  0.000000e+00  7.690933e-01  3.981139e-01 -2.298496e-01 -4.440382e-01  0.000000e+00  0.000000e+00  0.000000e+00
        74    pvqj        5.587463758        32.50014038        5.942141649  0.000000e+00  0.000000e+00  0.000000e+00  4.440344e-01  2.298511e-01 -8.578146e-01  1.189789e-01  0.000000e+00  0.000000e+00  0.000000e+00
        75    pvqj        7.840993758        33.85475962        5.097858351  0.000000e+00  0.000000e+00  0.000000e+00  2.298511e-01 -4.440344e-01  1.189789e-01  8.578146e-01  0.000000e+00  0.000000e+00  0.000000e+00
        76    pvqj        7.933726242        36.40337038        1.417858351  0.000000e+00  0.000000e+00  0.000000e+00  2.298511e-01  4.440344e-01 -1.189789e-01  8.578146e-01  0.000000e+00  0.000000e+00  0.000000e+00
        77    pvqj        5.680196242        37.70445038        2.337857792  0.000000e+00  0.000000e+00  0.000000e+00  7.690933e-01  3.981139e-01  2.298496e-01  4.440382e-01  0.000000e+00  0.000000e+00  0.000000e+00
        78    pvqj        7.933726242        36.45690962        6.017857792  0.000000e+00  0.000000e+00  0.000000e+00  4.440383e-01  2.298497e-01  3.981137e-01  7.690931e-01  0.000000e+00  0.000000e+00  0.000000e+00
        79    pvqj        5.680196242        37.75798962        5.097858351  0.000000e+00  0.000000e+00  0.000000e+00  2.298511e-01 -4.440344e-01 -1.189789e-01 -8.578146e-01  0.000000e+00  0.000000e+00  0.000000e+00
        80    pvqj        10.18725624        1.327849057        1.342142208  0.000000e+00  0.000000e+00  0.000000e+00  3.981105e-01 -7.690943e-01  4.440378e-01 -2.298531e-01  0.000000e+00  0.000000e+00  0.000000e+00
        81    pvqj        12.44078624        2.575380943        2.337857792  0.000000e+00  0.000000e+00  0.000000e+00  7.690943e-01  3.981106e-01  2.298530e-01  4.440378e-01  0.000000e+00  0.000000e+00  0.000000e+00
        82    pvqj           10.14089        1.354619233        5.942141649  0.000000e+00  0.000000e+00  0.000000e+00  3.250560e-01 -6.279638e-01  6.279638e-01  3.250560e-01  0.000000e+00  0.000000e+00  0.000000e+00
        83    pvqj        12.44078624        2.628919616        5.097858351  0.000000e+00  0.000000e+00  0.000000e+00  2.298511e-01 -4.440344e-01 -1.189789e-01 -8.578146e-01  0.000000e+00  0.000000e+00  0.000000e+00
        84    pvqj        12.34805376        5.177540384        1.417858351  0.000000e+00  0.000000e+00  0.000000e+00  8.578146e-01  1.189789e-01 -4.440344e-01  2.298511e-01  0.000000e+00  0.000000e+00  0.000000e+00
        85    pvqj        10.09452376        6.532149616        2.262141649  0.000000e+00  0.000000e+00  0.000000e+00  1.189789e-01 -8.578146e-01  2.298511e-01  4.440344e-01  0.000000e+00  0.000000e+00  0.000000e+00
        86    pvqj        12.34805376        5.231079057        6.017857792  0.000000e+00  0.000000e+00  0.000000e+00  4.440379e-01  2.298531e-01 -3.981105e-01 -7.690942e-01  0.000000e+00  0.000000e+00  0.000000e+00
        87    pvqj        10.09452376        6.478610943        5.022142208  0.000000e+00  0.000000e+00  0.000000e+00  2.298530e-01 -4.440380e-01 -7.690944e-01  3.981107e-01  0.000000e+00  0.000000e+00  0.000000e+00
        88    pvqj        10.18725624        9.134309057        1.342142208  0.000000e+00  0.000000e+00  0.000000e+00  3.981105e-01 -7.690943e-01  4.440378e-01 -2.298531e-01  0.000000e+00  0.000000e+00  0.000000e+00
        89    pvqj        12.44078624        10.38184094        2.337857792  0.000000e+00  0.000000e+00  0.000000e+00  7.690943e-01  3.981106e-01  2.298530e-01  4.440378e-01  0.000000e+00  0.000000e+00  0.000000e+00
        90    pvqj        10.09452376        9.080770384        5.942141649  0.000000e+00  0.000000e+00  0.000000e+00  4.440344e-01  2.298511e-01 -8.578146e-01  1.189789e-01  0.000000e+00  0.000000e+00  0.000000e+00
        91    pvqj        12.34805376        10.43537962        5.097858351  0.000000e+00  0.000000e+00  0.000000e+00  2.298511e-01 -4.440344e-01  1.189789e-01  8.578146e-01  0.000000e+00  0.000000e+00  0.000000e+00
        92    pvqj        12.44078624         12.9839915        1.417858351  0.000000e+00  0.000000e+00  0.000000e+00  2.298514e-01  4.440184e-01 -1.189703e-01  8.578157e-01  0.000000e+00  0.000000e+00  0.000000e+00
        93    pvqj        10.18725624        14.28507094        2.337857792  0.000000e+00  0.000000e+00  0.000000e+00  7.690943e-01  3.981106e-01  2.298530e-01  4.440378e-01  0.000000e+00  0.000000e+00  0.000000e+00
        94    pvqj        12.44078624        13.03753018        6.017857792  0.000000e+00  0.000000e+00  0.000000e+00  4.440338e-01  2.298472e-01  3.981162e-01  7.690978e-01  0.000000e+00  0.000000e+00  0.000000e+00
        95    pvqj        10.18725624        14.33860962        5.097858351  0.000000e+00  0.000000e+00  0.000000e+00  2.298511e-01 -4.440344e-01 -1.189789e-01 -8.578146e-01  0.000000e+00  0.000000e+00  0.000000e+00
        96    pvqj           10.14089        16.86045133        1.342142208  0.000000e+00  0.000000e+00  0.000000e+00  0.000000e+00  0.000000e+00  8.880739e-01 -4.597007e-01  0.000000e+00  0.000000e+00  0.000000e+00
        97    pvqj        12.34805376        18.24183962        2.262141649  0.000000e+00  0.000000e+00  0.000000e+00  1.189789e-01 -8.578146e-01  2.298511e-01  4.440344e-01  0.000000e+00  0.000000e+00  0.000000e+00
        98    pvqj           10.14089        16.96752923        5.942141649  0.000000e+00  0.000000e+00  0.000000e+00  3.250560e-01 -6.279638e-01  6.279638e-01  3.250560e-01  0.000000e+00  0.000000e+00  0.000000e+00
        99    pvqj           12.39442        18.26860923        5.022142208  0.000000e+00  0.000000e+00  0.000000e+00  4.597006e-01 -8.880739e-01  0.000000e+00  0.000000e+00  0.000000e+00  0.000000e+00  0.000000e+00
       100    pvqj           12.39442        20.87075923        1.417858351  0.000000e+00  0.000000e+00  0.000000e+00  6.279638e-01 -3.250560e-01  3.250560e-01  6.279638e-01  0.000000e+00  0.000000e+00  0.000000e+00
       101    pvqj        10.09452376        22.14506962        2.262141649  0.000000e+00  0.000000e+00  0.000000e+00  1.189789e-01 -8.578146e-01  2.298511e-01  4.440344e-01  0.000000e+00  0.000000e+00  0.000000e+00
       102    pvqj        12.44078624        20.84399018        6.017857792  0.000000e+00  0.000000e+00  0.000000e+00  4.440338e-01  2.298472e-01  3.981162e-01  7.690978e-01  0.000000e+00  0.000000e+00  0.000000e+00
       103    pvqj        10.18725624        22.09153038        5.022142208  0.000000e+00  0.000000e+00  0.000000e+00  2.298495e-01 -4.440387e-01  7.690937e-01 -3.981142e-01  0.000000e+00  0.000000e+00  0.000000e+00
       104    pvqj        10.09452376        24.74722018        1.342142208  0.000000e+00  0.000000e+00  0.000000e+00  3.981151e-01 -7.690944e-01 -4.440350e-01  2.298467e-01  0.000000e+00  0.000000e+00  0.000000e+00
       105    pvqj        12.34805376        25.99476038        2.337857792  0.000000e+00  0.000000e+00  0.000000e+00  7.690933e-01  3.981139e-01 -2.298496e-01 -4.440382e-01  0.000000e+00  0.000000e+00  0.000000e+00
       106    pvqj        10.09452376        24.69368038        5.942141649  0.000000e+00  0.000000e+00  0.000000e+00  4.440344e-01  2.298511e-01 -8.578146e-01  1.189789e-01  0.000000e+00  0.000000e+00  0.000000e+00
       107    pvqj        12.34805376        26.04829962        5.097858351  0.000000e+00  0.000000e+00  0.000000e+00  2.298511e-01 -4.440344e-01  1.189789e-01  8.578146e-01  0.000000e+00  0.000000e+00  0.000000e+00
       108    pvqj           12.39442        28.57014133        1.342142208  0.000000e+00  0.000000e+00  0.000000e+00  0.000000e+00  0.000000e+00  8.880739e-01 -4.597007e-01  0.000000e+00  0.000000e+00  0.000000e+00
       109    pvqj        10.18725624        29.95152962        2.262141649  0.000000e+00  0.000000e+00  0.000000e+00  1.189789e-01 -8.578146e-01 -2.298511e-01 -4.440344e-01  0.000000e+00  0.000000e+00  0.000000e+00
       110    pvqj           12.39442        28.67721923        5.942141649  0.000000e+00  0.000000e+00  0.000000e+00  3.250560e-01 -6.279638e-01  6.279638e-01  3.250560e-01  0.000000e+00  0.000000e+00  0.000000e+00
       111    pvqj           10.14089        29.97829867        5.022142208  0.000000e+00  0.000000e+00  0.000000e+00  4.597007e-01 -8.880739e-01  0.000000e+00  0.000000e+00  0.000000e+00  0.000000e+00  0.000000e+00
       112    pvqj        10.09452376        32.55367962        1.342142208  0.000000e+00  0.000000e+00  0.000000e+00  3.981138e-01 -7.690934e-01 -4.440382e-01  2.298497e-01  0.000000e+00  0.000000e+00  0.000000e+00
       113    pvqj        12.34805376        33.85475962        2.262141649  0.000000e+00  0.000000e+00  0.000000e+00  1.189789e-01 -8.578146e-01  2.298511e-01  4.440344e-01  0.000000e+00  0.000000e+00  0.000000e+00
       114    pvqj           10.14089        32.58044923        5.942141649  0.000000e+00  0.000000e+00  0.000000e+00  3.250560e-01 -6.279638e-01  6.279638e-01  3.250560e-01  0.000000e+00  0.000000e+00  0.000000e+00
       115    pvqj        12.44078624        33.80122038        5.022142208  0.000000e+00  0.000000e+00  0.000000e+00  2.298495e-01 -4.440387e-01  7.690937e-01 -3.981142e-01  0.000000e+00  0.000000e+00  0.000000e+00
       116    pvqj        12.34805376        36.45690962        1.342142208  0.000000e+00  0.000000e+00  0.000000e+00  3.981138e-01 -7.690934e-01 -4.440382e-01  2.298497e-01  0.000000e+00  0.000000e+00  0.000000e+00
       117    pvqj           10.14089        37.78475867        2.337857792  0.000000e+00  0.000000e+00  0.000000e+00  1.042165e-03  7.369227e-04  0.000000e+00  0.000000e+00  0.000000e+00  0.000000e+00  0.000000e+00
       118    pvqj        12.44078624        36.40337038        5.942141649  0.000000e+00  0.000000e+00  0.000000e+00  1.189789e-01  8.578146e-01 -2.298511e-01  4.440344e-01  0.000000e+00  0.000000e+00  0.000000e+00
       119    pvqj        10.18725624        37.75798962        5.097858351  0.000000e+00  0.000000e+00  0.000000e+00  2.298511e-01 -4.440344e-01 -1.189789e-01 -8.578146e-01  0.000000e+00  0.000000e+00  0.000000e+00
       120    pvqj        14.69431624        1.274310384        1.417858351  0.000000e+00  0.000000e+00  0.000000e+00  2.298511e-01  4.440344e-01 -1.189789e-01  8.578146e-01  0.000000e+00  0.000000e+00  0.000000e+00
       121    pvqj        16.94784624        2.628919616        2.262141649  0.000000e+00  0.000000e+00  0.000000e+00  1.189789e-01 -8.578146e-01 -2.298511e-01 -4.440344e-01  0.000000e+00  0.000000e+00  0.000000e+00
       122    pvqj        14.69431624        1.327849057        6.017857792  0.000000e+00  0.000000e+00  0.000000e+00  4.440379e-01  2.298531e-01  3.981105e-01  7.690942e-01  0.000000e+00  0.000000e+00  0.000000e+00
       123    pvqj        16.94784624        2.575380943        5.022142208  0.000000e+00  0.000000e+00  0.000000e+00  2.298530e-01 -4.440380e-01  7.690944e-01 -3.981107e-01  0.000000e+00  0.000000e+00  0.000000e+00
       124    pvqj           16.90148        5.257848114        1.417858351  0.000000e+00  0.000000e+00  0.000000e+00  6.279654e-01 -3.250529e-01  3.250529e-01  6.279654e-01  0.000000e+00  0.000000e+00  0.000000e+00
       125    pvqj        14.60158376        6.478610943        2.337857792  0.000000e+00  0.000000e+00  0.000000e+00  7.690943e-01  3.981106e-01 -2.298530e-01 -4.440378e-01  0.000000e+00  0.000000e+00  0.000000e+00
       126    pvqj           16.90148        5.150770208        6.017857792  0.000000e+00  0.000000e+00  0.000000e+00  8.880728e-01  4.597029e-01  0.000000e+00  0.000000e+00  0.000000e+00  0.000000e+00  0.000000e+00
       127    pvqj           14.64795        6.451840767        5.097858351  0.000000e+00  0.000000e+00  0.000000e+00  6.279638e-01  3.250560e-01 -3.250560e-01  6.279638e-01  0.000000e+00  0.000000e+00  0.000000e+00
       128    pvqj           14.64795        9.054000208        1.342142208  0.000000e+00  0.000000e+00  0.000000e+00  9.617421e-04  6.800476e-04  0.000000e+00  0.000000e+00  0.000000e+00  0.000000e+00  0.000000e+00
       129    pvqj        16.85511376        10.38184094        2.337857792  0.000000e+00  0.000000e+00  0.000000e+00  7.690943e-01  3.981106e-01 -2.298530e-01 -4.440378e-01  0.000000e+00  0.000000e+00  0.000000e+00
       130    pvqj        14.60158376        9.080770384        5.942141649  0.000000e+00  0.000000e+00  0.000000e+00  4.440344e-01  2.298511e-01 -8.578146e-01  1.189789e-01  0.000000e+00  0.000000e+00  0.000000e+00
       131    pvqj           16.90148        10.35507077        5.097858351  0.000000e+00  0.000000e+00  0.000000e+00  6.279638e-01  3.250560e-01 -3.250560e-01  6.279638e-01  0.000000e+00  0.000000e+00  0.000000e+00
       132    pvqj           16.90148        12.95722133        1.342142208  0.000000e+00  0.000000e+00  0.000000e+00  0.000000e+00  0.000000e+00  8.880739e-01 -4.597007e-01  0.000000e+00  0.000000e+00  0.000000e+00
       133    pvqj        14.69431624        14.28507094        2.337857792  0.000000e+00  0.000000e+00  0.000000e+00  7.690943e-01  3.981106e-01  2.298530e-01  4.440378e-01  0.000000e+00  0.000000e+00  0.000000e+00