<OpenMD version=2>
  <MetaData>


molecule{
  name = "TIP4P-Ice";
  
  atom[0]{
    type = "O_TIP4P-Ice";
    position( 0.0, 0.0, -0.06556 );
  }
  atom[1]{
    type = "H_TIP4P-Ice";
    position( 0.0, 0.75695, 0.52032 );
  }
  atom[2]{
    type = "H_TIP4P-Ice";
    position( 0.0, -0.75695, 0.52032 );
  }
  atom[3]{
    type = "EP_TIP4P-Ice";
    position( 0.0, 0.0, 0.09214 );
  }

  rigidBody[0]{
    members(0, 1, 2, 3);
  }

}

component{
  type = "TIP4P-Ice";
  nMol = 500;
}

ensemble = NVT;
forceField = "Water";
electrostaticSummationMethod = "shifted_force";
electrostaticScreeningMethod = "damped";
cutoffRadius = 9;
switchingRadius = 9;
dampingAlpha = 0.18;

targetTemp = 300;
targetPressure = 1.0;

tauThermostat = 1e3;
tauBarostat = 1e4;

dt = 2.0;
runTime = 1e3;

tempSet = "true";
thermalTime = 10;
sampleTime = 100;
statusTime = 2;
## Last run using OpenMD version: 2.5, revision: f1fa95f6875982f7721c030ae6fcf2f99c917873
  </MetaData>
  <Snapshot>
    <FrameData>
        Time: 0
        Hmat: {{ 24.63883416, 0, 0 }, { 0, 24.63883416, 0 }, { 0, 0, 24.63883416 }}
  Thermostat: 0 , 0
    Barostat: {{ 0, 0, 0 }, { 0, 0, 0 }, { 0, 0, 0 }}
    </FrameData>
    <StuntDoubles>
         0    pvqj       -12.31941708       -12.31941708       -12.31941708 -2.117162e-03 -5.222665e-04 -9.250190e-04  1.138618e-01 -6.574942e-01  7.439673e-01  3.534987e-02  6.834978e-03 -2.007258e-02  3.351354e-03
         1    pvqj       -12.31941708       -9.855533665       -9.855533665 -1.156151e-02  3.384162e-03  4.172618e-05  5.363506e-01  5.687295e-01 -4.746775e-01  4.044206e-01 -2.476794e-02  9.307778e-03  2.837161e-02
         2    pvqj       -9.855533665       -9.855533665       -12.31941708 -3.793086e-03  4.218296e-03 -1.144967e-03  1.838177e-01  7.455921e-02 -8.923704e-01  4.053728e-01 -1.718106e-02 -1.857167e-02  2.436311e-02
         3    pvqj       -9.855533665       -12.31941708       -9.855533665 -1.331479e-03  3.839212e-03  3.102310e-03  1.854787e-01 -2.750364e-01 -4.661516e-01 -8.201557e-01 -2.387452e-03 -2.853572e-02  6.122585e-03
         4    pvqj       -7.391650249       -12.31941708       -12.31941708  7.135539e-03  2.060715e-04 -2.290468e-03  5.704439e-01  3.096920e-01 -2.008919e-01  7.337077e-01  2.675406e-02  1.258835e-02  7.070390e-03
         5    pvqj       -7.391650249       -9.855533665       -9.855533665  2.245953e-03 -1.083263e-04  4.883507e-03  6.044328e-01 -1.127587e-01  6.231205e-01  4.833915e-01  2.285350e-03 -2.966906e-04  5.008146e-02
         6    pvqj       -4.927766832       -9.855533665       -12.31941708 -1.648935e-03  1.421036e-03 -4.260620e-03  3.254943e-01 -3.578688e-01  7.508858e-01 -4.496152e-01 -3.680175e-03  2.399100e-03  1.960394e-02
         7    pvqj       -4.927766832       -12.31941708       -9.855533665  4.775267e-03  3.868950e-03  2.889559e-03  4.713063e-01 -1.256237e-01  8.665795e-01 -1.054941e-01 -1.886379e-02  1.030537e-02  1.028537e-02
         8    pvqj       -2.463883416       -12.31941708       -12.31941708  3.059706e-03 -2.523378e-03 -2.444598e-03  3.156381e-01 -7.503774e-01 -3.629991e-01  4.533630e-01 -3.761321e-02  1.005043e-02  2.765903e-02
         9    pvqj       -2.463883416       -9.855533665       -9.855533665 -2.073226e-03 -3.897987e-03  1.198360e-03  5.477502e-03 -4.506867e-01  2.054652e-01  8.686976e-01 -1.392690e-02 -4.846381e-03  1.762761e-02
        10    pvqj    1.776356839e-15       -9.855533665       -12.31941708  2.110562e-03 -1.264712e-04  1.968414e-03  3.331899e-01 -5.190222e-01 -6.225486e-01 -4.816987e-01  2.053514e-02 -3.831081e-03  1.306283e-02
        11    pvqj    1.776356839e-15       -12.31941708       -9.855533665 -1.555300e-03  3.687611e-04 -2.988960e-03  2.480266e-01  6.268845e-01  2.178566e-01  7.057175e-01  2.179557e-02 -1.320792e-02  2.442784e-02
        12    pvqj        2.463883416       -12.31941708       -12.31941708 -1.446240e-03  7.822494e-04  4.922445e-03  7.744962e-01 -5.211352e-01  1.638216e-01  3.189611e-01  7.298009e-03 -1.230196e-02  9.682159e-03
        13    pvqj        2.463883416       -9.855533665       -9.855533665 -8.748423e-03 -2.464321e-03  3.638931e-03  5.985162e-01 -9.790294e-02 -3.864049e-01  6.948990e-01 -3.973766e-03  2.619314e-02 -4.384096e-02
        14    pvqj        4.927766832       -9.855533665       -12.31941708  3.867427e-03  3.682661e-03 -1.409589e-04  3.499203e-02 -3.505629e-01 -9.358771e-01  3.918488e-03  1.017395e-02  6.721139e-03 -2.296161e-02
        15    pvqj        4.927766832       -12.31941708       -9.855533665 -2.209801e-03  5.027603e-03 -1.479170e-04  5.170749e-01 -8.483492e-02 -8.693091e-02  8.472777e-01 -1.849544e-02 -5.945967e-03 -7.449229e-03
        16    pvqj        7.391650249       -12.31941708       -12.31941708  3.649756e-03  1.481208e-03 -4.831084e-03  4.110538e-01  5.192272e-01  2.874347e-01 -6.919676e-01 -1.432130e-02 -1.057077e-02  8.026257e-03
        17    pvqj        7.391650249       -9.855533665       -9.855533665  1.214438e-03  7.235090e-04  1.238163e-03  8.758737e-01 -2.031622e-02  3.961694e-01 -2.747405e-01 -2.126997e-02 -9.628805e-05  5.914062e-03
        18    pvqj        9.855533665       -9.855533665       -12.31941708 -3.578747e-03  7.498320e-04 -5.283175e-04  4.003742e-01  6.018596e-03  2.103038e-01 -8.918725e-01  9.390582e-04 -7.258277e-03  5.470082e-03
        19    pvqj        9.855533665       -12.31941708       -9.855533665 -4.012207e-03  4.524729e-04  1.667550e-03  6.667379e-01 -4.394222e-01  5.481554e-01  2.487859e-01 -4.609395e-02 -1.912138e-03 -5.924901e-03
        20    pvqj       -12.31941708       -7.391650249       -12.31941708  2.751758e-03  2.401818e-03 -4.233027e-03  1.582586e-02  9.184331e-02 -5.778417e-01  8.108103e-01 -2.060188e-03 -1.570357e-02  1.526353e-02
        21    pvqj       -12.31941708       -4.927766832       -9.855533665 -1.339443e-05  3.905602e-03  3.241819e-04  8.384913e-02 -4.262128e-02  2.049097e-01 -9.742509e-01  3.993461e-02  1.799705e-02  1.962366e-02
        22    pvqj       -9.855533665       -4.927766832       -12.31941708 -4.961430e-03 -4.671237e-03 -5.140599e-03  3.169066e-01 -4.887185e-01  6.791429e-01  4.466424e-01  3.965985e-02  2.113593e-02 -1.101269e-02
        23    pvqj       -9.855533665       -7.391650249       -9.855533665  2.848488e-03 -6.802505e-03 -4.041445e-03  7.340786e-01 -5.758148e-01 -8.252364e-02  3.503652e-01  2.402040e-03  2.893243e-04  2.931904e-02
        24    pvqj       -7.391650249       -7.391650249       -12.31941708 -1.272304e-03 -3.781654e-03  9.884576e-03  6.591610e-01  7.015328e-01  2.148819e-01  1.648766e-01 -3.268679e-03 -1.916976e-02 -1.565939e-02
        25    pvqj       -7.391650249       -4.927766832       -9.855533665 -1.510504e-03 -2.897766e-03 -5.582812e-03  4.520115e-01 -4.363665e-01 -7.615094e-01 -1.592900e-01  1.595549e-02  3.509623e-03  7.175773e-03
        26    pvqj       -4.927766832       -4.927766832       -12.31941708 -1.263443e-03  3.821358e-03  3.536740e-03  3.123476e-02  5.281046e-01  8.206058e-01 -2.161853e-01  1.550211e-02  2.238727e-02 -3.158938e-03
        27    pvqj       -4.927766832       -7.391650249       -9.855533665  1.794299e-03 -4.278076e-04 -1.561860e-03  6.181018e-01 -2.005524e-01  8.214539e-02 -7.556329e-01 -1.514928e-02  1.892640e-03  6.617597e-03
        28    pvqj       -2.463883416       -7.391650249       -12.31941708  2.437947e-03 -7.255131e-04 -3.308853e-03  3.437215e-01  1.671309e-01  1.344398e-01  9.142476e-01  2.868295e-02 -1.875859e-02  1.760720e-03
        29    pvqj       -2.463883416       -4.927766832       -9.855533665 -4.190107e-03  5.478603e-03  1.955828e-03  8.926663e-01 -2.119843e-01 -3.471117e-01  1.942242e-01  1.374123e-02 -1.732486e-02  2.466796e-04
        30    pvqj    1.776356839e-15       -4.927766832       -12.31941708  5.259154e-04  8.611856e-04  3.249471e-04  6.563232e-01  3.912419e-01  4.191063e-01 -4.904278e-01 -9.720652e-04  9.203547e-03 -8.311135e-03
        31    pvqj    1.776356839e-15       -7.391650249       -9.855533665 -2.949275e-03  2.673563e-03  4.032674e-03  4.547147e-01  6.832964e-01 -5.388048e-01 -1.898157e-01 -4.923710e-03 -9.329151e-03  1.565832e-02
        32    pvqj        2.463883416       -7.391650249       -12.31941708 -5.470176e-03  3.368368e-03  3.346786e-03  7.193583e-02  8.023693e-01  5.112398e-01 -2.994372e-01  1.507016e-02  9.527550e-03 -9.106972e-03
        33    pvqj        2.463883416       -4.927766832       -9.855533665 -6.227005e-03 -7.037274e-03 -3.710117e-04  7.554795e-02 -7.036058e-01  5.758937e-01 -4.093628e-01 -1.715627e-03 -2.020210e-03  6.989194e-03
        34    pvqj        4.927766832       -4.927766832       -12.31941708 -3.579123e-03  5.548268e-03 -2.545786e-03  3.136070e-01  5.673967e-01 -6.604932e-01  3.787615e-01 -1.233401e-03 -8.698404e-03 -1.298828e-02
        35    pvqj        4.927766832       -7.391650249       -9.855533665  1.532521e-04  2.142469e-03  3.174113e-03  7.824921e-01  3.987228e-01  3.000225e-01  3.724415e-01  2.863592e-02 -1.613457e-02  5.689734e-03
        36    pvqj        7.391650249       -7.391650249       -12.31941708  2.480942e-03 -8.582164e-05 -5.890130e-03  3.352756e-01 -3.064525e-01 -1.712717e-01  8.742672e-01 -8.843633e-03  3.481021e-03 -2.676804e-03
        37    pvqj        7.391650249       -4.927766832       -9.855533665  4.603428e-04  3.707955e-03  2.876743e-03  4.674892e-01 -8.228957e-01 -3.227339e-01 -1.180357e-02 -2.130166e-02  6.773500e-03 -3.499723e-02
        38    pvqj        9.855533665       -4.927766832       -12.31941708  6.056385e-04 -1.417082e-03  3.954839e-04  2.829928e-01 -6.352747e-02  2.419313e-01  9.259312e-01  1.691064e-02 -1.178019e-02  8.862639e-03
        39    pvqj        9.855533665       -7.391650249       -9.855533665  1.793372e-04  4.228611e-04 -3.743902e-03  1.604401e-02  6.000282e-01  5.079820e-01  6.177888e-01 -1.283699e-02  1.443077e-02 -5.554836e-03
        40    pvqj       -12.31941708       -2.463883416       -12.31941708  2.076530e-03 -2.281448e-03 -1.499813e-03  1.148056e-01 -6.821088e-01  4.503218e-01  5.645861e-01 -1.263900e-02 -2.569231e-03 -3.606595e-04
        41    pvqj       -12.31941708    1.776356839e-15       -9.855533665 -5.358096e-03 -1.262826e-03  1.504624e-03  5.727792e-01  6.323268e-01 -3.890169e-01  3.474948e-01 -6.786777e-03 -1.698237e-03  1.349899e-02
        42    pvqj       -9.855533665    1.776356839e-15       -12.31941708  2.837430e-03  6.238651e-03  4.526185e-03  8.829758e-01  5.136372e-03  4.491186e-01 -1.364548e-01 -2.836905e-02 -6.761008e-03  1.420264e-02
        43    pvqj       -9.855533665       -2.463883416       -9.855533665 -8.770720e-04 -3.199873e-03  2.897659e-03  7.870008e-01  5.521650e-01  3.016604e-03 -2.751988e-01 -1.491411e-02 -7.698065e-04  1.859771e-02
        44    pvqj       -7.391650249       -2.463883416       -12.31941708 -4.387659e-03  7.810016e-05  3.421325e-03  4.160274e-01  2.937301e-01  7.309736e-01 -4.542262e-01  4.033720e-02 -2.570560e-03 -3.159964e-02
        45    pvqj       -7.391650249    1.776356839e-15       -9.855533665  2.681592e-03 -1.379374e-03 -2.914263e-03  1.861347e-01 -4.837104e-01  7.860776e-01 -3.368384e-01  1.603936e-02 -1.617522e-02 -1.203573e-02
        46    pvqj       -4.927766832    1.776356839e-15       -12.31941708 -4.728756e-03 -4.107951e-03 -1.348684e-03  4.183653e-02  3.125342e-01  6.887319e-01  6.528557e-01 -1.510813e-02 -4.596004e-03  2.477150e-02
        47    pvqj       -4.927766832       -2.463883416       -9.855533665  7.713568e-03  5.447868e-03 -6.545459e-03  2.033407e-02 -2.612178e-01  8.502987e-01  4.564470e-01  6.985538e-03  2.446106e-02 -1.661851e-02
        48    pvqj       -2.463883416       -2.463883416       -12.31941708  4.051246e-03 -7.181739e-03  4.706423e-03  6.872901e-01  5.365194e-01 -3.602826e-01  3.316259e-01  6.776419e-03 -1.467037e-02 -3.795385e-02
        49    pvqj       -2.463883416    1.776356839e-15       -9.855533665  8.175920e-04  7.748245e-03 -4.087558e-03  7.372349e-01 -1.576721e-01 -5.561885e-01 -3.496835e-01  1.643646e-02  1.789127e-02  2.714591e-03
        50    pvqj    1.776356839e-15    1.776356839e-15       -12.31941708 -3.874203e-04 -5.399185e-04 -3.055760e-03  4.513055e-01 -7.729582e-01 -1.332853e-01 -4.255515e-01  1.661206e-02  8.770640e-03  3.943139e-03
        51    pvqj    1.776356839e-15       -2.463883416       -9.855533665  1.561334e-03 -1.284941e-03  1.385448e-03  4.231785e-02 -1.460894e-01  9.450959e-01 -2.892419e-01  3.372673e-03  3.275353e-03  1.401615e-02
        52    pvqj        2.463883416       -2.463883416       -12.31941708 -3.356754e-03 -7.769222e-04 -5.046523e-03  9.525450e-01 -1.041919e-01  1.570946e-01  2.390050e-01 -1.109057e-02 -3.378608e-03 -1.171012e-04
        53    pvqj        2.463883416    1.776356839e-15       -9.855533665  1.655036e-03  2.019791e-03 -3.518166e-03  4.905833e-01  1.347641e-01 -1.033740e-01  8.546815e-01  2.249062e-02 -2.497499e-03  1.735017e-02
        54    pvqj        4.927766832    1.776356839e-15       -12.31941708 -5.496237e-03  1.110454e-03  1.096280e-03  2.085567e-01  4.639534e-01 -8.643545e-02 -8.566097e-01  3.377212e-03  1.679795e-02  6.304233e-03
        55    pvqj        4.927766832       -2.463883416       -9.855533665 -7.693973e-03  1.019374e-02  3.314917e-03  5.679555e-01 -9.541250e-02  3.464727e-02  8.167757e-01  3.457391e-03  1.221959e-03  2.128627e-03
        56    pvqj        7.391650249       -2.463883416       -12.31941708  1.708747e-03  4.337842e-03 -2.569656e-04  2.797362e-01  6.317257e-02 -7.819756e-01 -5.534175e-01  1.408508e-02 -8.484789e-03 -2.101203e-02
        57    pvqj        7.391650249    1.776356839e-15       -9.855533665 -7.004398e-04 -2.613078e-03 -1.468798e-03  7.096510e-01  5.663000e-02 -4.030537e-01 -5.750967e-01  5.486446e-03  3.430617e-03  2.188875e-02
        58    pvqj        9.855533665    1.776356839e-15       -12.31941708 -1.037738e-04 -2.055916e-03  3.465714e-03  3.734620e-01  4.120541e-01  9.520751e-02  8.256349e-01  5.406870e-02  1.916448e-03 -3.528694e-04
        59    pvqj        9.855533665       -2.463883416       -9.855533665 -1.357873e-03  5.285021e-03 -2.271386e-03  7.060997e-01 -3.877983e-02 -4.133192e-01 -5.736606e-01 -4.639198e-04  8.487890e-04  2.988454e-02
        60    pvqj       -12.31941708        2.463883416       -12.31941708 -4.121459e-03 -8.287340e-04  1.544033e-03  1.181429e-02  7.177285e-01  2.609480e-01  6.454706e-01  2.968703e-03 -3.806348e-03  2.075066e-03
        61    pvqj       -12.31941708        4.927766832       -9.855533665  7.578975e-04 -1.635901e-03  2.713086e-03  7.423989e-01  8.446888e-02 -6.619299e-01 -5.964614e-02  2.695273e-02  2.643888e-02 -8.929552e-03
        62    pvqj       -9.855533665        4.927766832       -12.31941708 -4.447773e-03  3.120900e-03  3.321155e-03  3.903601e-02 -9.753083e-01 -6.067107e-02  2.087317e-01  4.719098e-03  1.252647e-02  7.177292e-03
        63    pvqj       -9.855533665        2.463883416       -9.855533665 -3.914051e-03 -2.388634e-04  3.666764e-03  6.912840e-01 -5.716482e-01  1.159799e-01  4.264896e-01 -2.762524e-03  1.153102e-02 -2.975475e-02
        64    pvqj       -7.391650249        2.463883416       -12.31941708  4.205669e-03  1.658424e-03  1.780401e-03  7.574465e-01 -5.157536e-01  2.620771e-01 -3.026362e-01  3.787441e-03 -1.302951e-03 -2.018569e-02
        65    pvqj       -7.391650249        4.927766832       -9.855533665  4.074312e-04 -8.800294e-03 -7.526138e-04  3.134474e-02  8.973393e-01  4.300248e-01 -9.422503e-02  2.920956e-02  1.782892e-02  2.718646e-02
        66    pvqj       -4.927766832        4.927766832       -12.31941708  1.884035e-03  8.010777e-04 -2.364629e-03  4.222873e-01 -3.357259e-01 -6.857467e-01  4.885827e-01  2.571747e-02 -1.703202e-02 -4.423643e-03
        67    pvqj       -4.927766832        2.463883416       -9.855533665  1.279089e-04 -2.421359e-03  8.664758e-04  4.312655e-01 -1.970153e-01 -4.952972e-01 -7.279256e-01  2.036468e-02  1.435398e-02  4.035832e-02
        68    pvqj       -2.463883416        2.463883416       -12.31941708  1.791773e-03 -7.206982e-03 -1.512707e-03  4.363487e-01  5.625452e-01 -6.607614e-01 -2.377752e-01 -2.724509e-02  5.534903e-04 -1.791526e-02
        69    pvqj       -2.463883416        4.927766832       -9.855533665  4.657855e-04  1.163758e-03  3.151564e-03  3.218537e-01 -9.368472e-01 -9.075779e-02  1.024236e-01  2.659833e-02 -9.425438e-03 -3.049513e-02
        70    pvqj    1.776356839e-15        4.927766832       -12.31941708  3.350934e-03 -1.463362e-03  1.713638e-03  8.577215e-01  4.035976e-01 -3.562604e-02 -3.164705e-01  4.840298e-05  1.096192e-02  2.561584e-02
        71    pvqj    1.776356839e-15        2.463883416       -9.855533665 -6.597438e-03  2.656326e-03  4.351472e-03  6.607786e-01 -8.768507e-02 -5.293992e-01 -5.248042e-01 -9.267771e-03  1.632806e-02  1.714326e-02
        72    pvqj        2.463883416        2.463883416       -12.31941708  1.099284e-04 -3.592520e-04  3.697527e-04  3.814083e-01 -6.580373e-01 -5.949812e-01 -2.598308e-01 -1.740333e-02  1.564803e-03  1.297344e-02
        73    pvqj        2.463883416        4.927766832       -9.855533665  2.168467e-03  6.621897e-03 -9.897747e-04  6.123466e-01 -5.196979e-01  4.183860e-01  4.241448e-01  3.389826e-02 -1.289567e-02 -1.141892e-02
        74    pvqj        4.927766832        4.927766832       -12.31941708  5.219800e-03 -1.375921e-03  6.981459e-03  6.107781e-01 -7.737329e-01  1.546121e-01 -6.620193e-02 -2.857391e-02  2.099365e-02 -9.723930e-03
        75    pvqj        4.927766832        2.463883416       -9.855533665  1.324706e-03 -1.852391e-03  5.099427e-03  2.186834e-01 -6.118621e-01 -2.555002e-01  7.159064e-01  3.496193e-03  6.291405e-03 -8.757896e-03
        76    pvqj        7.391650249        2.463883416       -12.31941708 -3.715042e-03 -2.800842e-04  7.191088e-03  4.937521e-01 -4.311411e-01 -3.243885e-01  6.819811e-01 -3.009932e-02 -1.278120e-02 -6.825954e-03
        77    pvqj        7.391650249        4.927766832       -9.855533665  4.409481e-03 -5.459054e-03 -1.933966e-03  5.234797e-01  8.344195e-02  1.574069e-01 -8.332044e-01 -2.293440e-02  2.028154e-02  9.617471e-03
        78    pvqj        9.855533665        4.927766832       -12.31941708 -2.151413e-03 -4.629268e-03  8.840430e-04  2.368054e-01  7.228873e-01 -6.476289e-01 -4.397589e-02  3.201170e-03 -7.523046e-03 -1.892839e-02
        79    pvqj        9.855533665        2.463883416       -9.855533665  5.724857e-03 -6.487386e-04 -3.239884e-03  5.643755e-02 -2.270523e-01 -4.528343e-01  8.603506e-01 -1.820262e-02  4.702327e-03  5.441761e-03
        80    pvqj       -12.31941708        7.391650249       -12.31941708 -7.910767e-04 -2.797707e-03 -3.281708e-03  1.257229e-01 -7.285875e-01  6.378415e-01 -2.156667e-01  1.068211e-02  7.773172e-03  7.410379e-03
        81    pvqj       -12.31941708        9.855533665       -9.855533665  6.210045e-03  3.807909e-03 -2.009724e-04  8.293516e-01  1.116443e-01 -3.524889e-01  4.188830e-01  1.994467e-02 -8.839657e-03  3.537014e-02
        82    pvqj       -9.855533665        9.855533665       -12.31941708 -6.942594e-03 -3.078497e-04 -2.964940e-03  2.609217e-01 -3.614102e-01  8.907123e-01  8.907411e-02 -1.513805e-02 -1.003869e-02  1.699779e-02
        83    pvqj       -9.855533665        7.391650249       -9.855533665 -1.300498e-03  1.665690e-03  3.026729e-03  7.589603e-01 -2.057162e-01 -5.251604e-01 -3.253717e-01  1.212778e-02  9.038772e-05 -1.653063e-03
        84    pvqj       -7.391650249        7.391650249       -12.31941708 -6.065229e-03 -4.486635e-03 -3.819901e-03  9.867386e-01 -1.061676e-01 -9.977195e-02 -7.156049e-02  5.244212e-03  1.056953e-02 -7.207693e-03
        85    pvqj       -7.391650249        9.855533665       -9.855533665  3.683858e-03 -6.357671e-03  9.837885e-04  4.184435e-01 -5.816128e-01 -3.973492e-01  5.733631e-01 -7.463679e-03 -1.676085e-02 -2.292757e-02
        86    pvqj       -4.927766832        9.855533665       -12.31941708  4.526264e-03  7.666878e-04 -4.910860e-03  3.743180e-01 -1.157579e-01 -2.950453e-01 -8.714553e-01  2.744497e-02  8.304721e-03  3.994739e-03
        87    pvqj       -4.927766832        7.391650249       -9.855533665 -2.893905e-03 -7.286287e-03  4.002751e-03  3.021563e-01  2.698559e-01  9.025380e-01  1.459604e-01 -1.016435e-02  2.275902e-02 -4.051737e-03
        88    pvqj       -2.463883416        7.391650249       -12.31941708 -3.331880e-03  7.941931e-03  1.001567e-04  8.012788e-01  1.443686e-01  1.767156e-01 -5.530656e-01 -3.784280e-02  2.297588e-02  1.421756e-02
        89    pvqj       -2.463883416        9.855533665       -9.855533665  1.339661e-03 -3.442797e-03  2.356493e-04  5.393033e-01 -7.018463e-01 -4.645181e-01 -2.804545e-02  2.872180e-02 -9.761139e-03  2.785447e-03
        90    pvqj    1.776356839e-15        9.855533665       -12.31941708  6.273706e-03 -1.384457e-03  4.341013e-03  8.790565e-01  1.748844e-01  4.231538e-01  1.327249e-01 -5.186929e-03  4.403839e-03 -5.296795e-02
        91    pvqj    1.776356839e-15        7.391650249       -9.855533665  5.713168e-03 -1.111708e-03  2.089785e-04  9.962405e-01 -2.933053e-02 -1.243765e-02  8.055977e-02  1.889713e-03 -8.313950e-03 -1.772187e-02
        92    pvqj        2.463883416        7.391650249       -12.31941708 -6.170273e-04  1.161105e-02  7.459119e-03  7.189030e-01  3.508899e-01 -5.931876e-01  9.046123e-02 -2.455109e-02 -1.204673e-02 -1.046038e-02
        93    pvqj        2.463883416        9.855533665       -9.855533665 -2.146296e-03  1.323931e-03  1.008548e-02  8.373685e-01  5.219229e-01  1.608423e-01  2.324462e-02 -1.938417e-02  1.919973e-02 -2.951444e-03
        94    pvqj        4.927766832        9.855533665       -12.31941708 -2.005567e-03  2.092140e-04  2.634009e-03  6.863647e-01 -6.542896e-01 -2.710883e-01  1.652867e-01 -1.921383e-02  1.625078e-02 -1.064205e-02
        95    pvqj        4.927766832        7.391650249       -9.855533665  7.431495e-03  5.286031e-03  4.417947e-03  5.154513e-01 -5.593636e-01 -1.373417e-01  6.344758e-01  4.263248e-03 -3.048461e-04 -2.410313e-02
        96    pvqj        7.391650249        7.391650249       -12.31941708  1.563287e-03 -2.345966e-03  9.090256e-04  3.530301e-01  5.839473e-01 -1.477325e-02 -7.308605e-01 -3.528462e-02 -6.087267e-03 -2.456503e-02
        97    pvqj        7.391650249        9.855533665       -9.855533665  1.097750e-03 -1.352981e-03  4.368803e-03  3.901514e-02  1.023873e-01  6.743989e-01 -7.301923e-01  1.770820e-02  1.845698e-03 -1.548973e-02
        98    pvqj        9.855533665        9.855533665       -12.31941708 -1.375100e-03  2.371694e-03 -6.636464e-03  8.093731e-01 -4.937308e-01 -2.585262e-02  3.169806e-01 -3.236466e-02 -1.329851e-02 -8.553749e-03
        99    pvqj        9.855533665        7.391650249       -9.855533665 -6.388483e-03  7.603216e-04 -4.126181e-03  2.171719e-01 -5.836404e-01  4.212571e-01  6.593502e-01  8.509249e-03 -7.758968e-03  1.260056e-02
       100    pvqj       -12.31941708       -12.31941708       -7.391650249 -2.295479e-03 -1.784321e-03 -6.073392e-04  3.392076e-01  3.635984e-01 -8.631787e-02  8.632981e-01  5.021048e-03  4.157045e-03 -2.274480e-02
       101    pvqj       -12.31941708       -9.855533665       -4.927766832 -6.979568e-04 -6.315448e-03  4.733306e-03  3.944767e-01  1.840928e-01 -4.689994e-01 -7.684644e-01  1.064235e-02  1.476485e-03  4.696587e-03
       102    pvqj       -9.855533665       -9.855533665       -7.391650249 -3.947863e-03 -2.807427e-04  5.603695e-03  6.270281e-01 -5.138382e-01  2.762575e-01  5.162246e-01 -1.535372e-04  2.699442e-03  3.745768e-03
       103    pvqj       -9.855533665       -12.31941708       -4.927766832  2.172845e-04 -7.137568e-03  2.273339e-03  4.559681e-02 -8.048811e-01 -6.570271e-02  5.880225e-01 -3.215589e-02  2.320480e-02 -2.467582e-02
       104    pvqj       -7.391650249       -12.31941708       -7.391650249 -2.157049e-03  2.068898e-03  1.138026e-03  7.369698e-02 -9.885314e-01 -1.903378e-02 -1.304303e-01  2.101037e-02 -9.301639e-03 -1.715090e-02
       105    pvqj       -7.391650249       -9.855533665       -4.927766832  9.702935e-04 -4.522063e-03  2.639794e-03  8.463133e-02  2.645171e-02 -4.785068e-01 -8.735955e-01  8.442866e-03 -6.304814e-03  4.675650e-03
       106    pvqj       -4.927766832       -9.855533665       -7.391650249  4.490547e-03 -5.041213e-03  3.688561e-03  1.286342e-01 -3.353359e-01  8.735335e-01 -3.285458e-01  9.501621e-03 -1.627513e-02  2.074339e-03
       107    pvqj       -4.927766832       -12.31941708       -4.927766832  1.021342e-03 -1.734916e-03 -2.868751e-03  2.651750e-01 -2.727946e-01 -8.867431e-01 -2.625870e-01 -3.520447e-03  9.182813e-03 -7.570731e-03
       108    pvqj       -2.463883416       -12.31941708       -7.391650249  1.234044e-03  4.126073e-03  2.154494e-03  8.500276e-01 -4.215347e-01  2.747989e-01  1.557152e-01 -1.168196e-02 -2.326534e-02 -1.445120e-02
       109    pvqj       -2.463883416       -9.855533665       -4.927766832 -7.770887e-04  3.562214e-03  4.529021e-04  5.971879e-01  6.642925e-01  2.542010e-01 -3.707613e-01 -1.903171e-02 -7.316134e-03  2.329657e-02
       110    pvqj    1.776356839e-15       -9.855533665       -7.391650249 -7.637884e-03  1.068766e-04  5.198686e-03  3.265672e-01  2.948349e-01  3.194672e-01  8.392657e-01 -2.590699e-02 -1.699682e-02  2.157948e-02
       111    pvqj    1.776356839e-15       -12.31941708       -4.927766832  5.729992e-03 -4.793063e-03 -9.689250e-04  6.066378e-01 -2.409958e-01 -5.505026e-01 -5.204407e-01  4.641484e-02 -1.253623e-02  7.237141e-03
       112    pvqj        2.463883416       -12.31941708       -7.391650249 -2.634159e-03 -3.702269e-03  4.760378e-03  6.013959e-01 -5.974582e-01 -5.304248e-01 -4.029674e-03  7.886280e-04 -1.056383e-02  2.220199e-03
       113    pvqj        2.463883416       -9.855533665       -4.927766832  1.029368e-03 -1.977308e-03 -1.812457e-03  1.712001e-01 -3.330987e-01  5.572968e-01  7.410506e-01  1.615926e-03 -6.442991e-03 -1.002084e-03
       114    pvqj        4.927766832       -9.855533665       -7.391650249  3.395502e-03 -4.766897e-04  6.112267e-03  2.602216e-01 -4.467255e-01  4.214070e-01  7.450753e-01 -5.516179e-04 -1.970977e-03  2.022011e-02
       115    pvqj        4.927766832       -12.31941708       -4.927766832  7.167442e-03 -2.427040e-03 -1.868741e-03  4.641555e-01 -2.250975e-01  1.060775e-01  8.500814e-01 -5.350341e-04  5.516107e-04  1.324470e-02
       116    pvqj        7.391650249       -12.31941708       -7.391650249 -9.081271e-04  1.635082e-03  1.755959e-03  6.887543e-01 -6.358637e-01 -2.701969e-01 -2.197467e-01  2.218984e-02  2.332156e-02 -1.154961e-02
       117    pvqj        7.391650249       -9.855533665       -4.927766832  1.405927e-03  1.982641e-03  4.177504e-03  9.510081e-01 -2.515226e-01  2.922791e-02  1.773857e-01  7.561629e-03  2.450535e-02  1.258210e-03
       118    pvqj        9.855533665       -9.855533665       -7.391650249  3.472226e-03 -1.199613e-03  2.096775e-03  3.856716e-01 -8.845373e-01 -1.367601e-01  2.239372e-01 -2.404439e-02  2.204992e-02  7.040805e-03
       119    pvqj        9.855533665       -12.31941708       -4.927766832  7.641977e-04  2.101624e-03  1.201405e-03  1.609904e-02  7.195735e-01 -2.412474e-01 -6.509643e-01  5.339888e-03 -1.201193e-03 -1.481294e-02
       120    pvqj       -12.31941708       -7.391650249       -7.391650249 -4.172099e-03 -3.316822e-03  4.432358e-03  5.190393e-01  4.164050e-01 -4.766285e-01  5.744827e-01  2.713737e-03 -2.406636e-03 -1.048765e-02
       121    pvqj       -12.31941708       -4.927766832       -4.927766832  5.054216e-03 -1.270930e-03  5.071325e-05  3.873110e-01 -1.191366e-01 -2.677032e-01  8.741462e-01 -2.082972e-02 -1.065735e-02 -2.649515e-02
       122    pvqj       -9.855533665       -4.927766832       -7.391650249  9.887013e-04 -3.494627e-03  1.351090e-03  5.842575e-01  1.135936e-01 -7.941396e-01 -1.228086e-01  6.845699e-04 -1.373982e-02 -6.283634e-04
       123    pvqj       -9.855533665       -7.391650249       -4.927766832 -1.964780e-03 -2.092596e-03  9.739850e-04  3.333375e-01  8.148667e-01  4.457555e-01  1.618039e-01 -1.003364e-02 -7.572816e-03  3.050196e-03
       124    pvqj       -7.391650249       -7.391650249       -7.391650249  1.055662e-03  2.147301e-03  4.831751e-03  1.957175e-01  5.056014e-01 -4.535071e-01 -7.073848e-01 -1.330048e-03 -1.362743e-02  4.970489e-02
       125    pvqj       -7.391650249       -4.927766832       -4.927766832  3.510753e-03  3.850875e-03 -9.866117e-03  2.340162e-01  8.779276e-01 -7.350504e-02  4.111892e-01 -2.096777e-03 -2.055250e-03  3.058051e-02
       126    pvqj       -4.927766832       -4.927766832       -7.391650249 -3.051323e-03 -8.712726e-04 -2.023141e-03  2.262582e-01  7.588641e-01  5.653606e-01 -2.308679e-01 -6.034244e-02 -6.952184e-03  2.852096e-02
       127    pvqj       -4.927766832       -7.391650249       -4.927766832  4.701784e-03  8.146311e-04  5.439109e-03  2.776824e-01  6.159642e-01  1.058543e-01  7.295721e-01 -1.821416e-02  2.147320e-02 -4.546596e-03
       128    pvqj       -2.463883416       -7.391650249       -7.391650249  7.118356e-04 -5.091703e-03 -3.819875e-03  8.473762e-02 -2.893382e-01  4.208043e-01 -8.555856e-01  2.397866e-02 -1.881268e-02  1.885417e-02
       129    pvqj       -2.463883416       -4.927766832       -4.927766832 -6.037775e-04  5.042352e-03  2.458546e-03  4.898507e-01 -6.286243e-01  5.680112e-01  2.055262e-01 -4.518561e-02  7.847252e-03  9.752982e-03
       130    pvqj    1.776356839e-15       -4.927766832       -7.391650249 -4.637475e-03 -3.244361e-04  2.527103e-03  7.598743e-02 -5.490280e-01  5.772191e-01  5.996768e-01  1.435901e-02  1.405485e-02 -7.958244e-03
       131    pvqj    1.776356839e-15       -7.391650249       -4.927766832  4.203612e-03 -1.432234e-03 -1.752511e-05  6.261697e-01 -2.449937e-01  7.085964e-01 -2.139643e-01  1.919676e-02 -8.048154e-03 -3.858319e-02
       132    pvqj        2.463883416       -7.391650249       -7.391650249  1.436001e-03 -6.402539e-03 -5.931952e-05  7.142642e-01  2.892354e-01  4.362955e-01  4.645597e-01  2.184352e-02  9.179603e-03  7.187761e-03