<OpenMD version=2>
  <MetaData>
    molecule{
      name = "Pt";
      atom[0]{
	      type = "Pt_FQ";
	      position(0.0, 0.0, 0.0);
      }
    }
    component{
      type = "Pt";
	nMol = 784;
    }

  flucQ {
    propagator = "Langevin";
    targetTemp = 0.1;
    tauThermostat = 10.0;
    dragCoefficient = 10.0;
  }

forceFieldFileName = "metalsFQ.frc";
forceField = "FlucQ";
outputFluctuatingCharges = true;
outputElectricField = true;
ensemble = NVE;
dt = 1;
runTime = 500;
sampleTime = 1;
statusTime = 1;

uniformField=(0,0,1e-1);

cutoffMethod = "shifted_force";
cutoffRadius = 13.5;
electrostaticScreeningMethod = "DAMPED";
statFileFormat = "TIME|TOTAL_ENERGY|POTENTIAL_ENERGY|KINETIC_ENERGY|TEMPERATURE|PRESSURE|VOLUME|CONSERVED_QUANTITY|SYSTEM_DIPOLE";
dampingAlpha = 0.14;

targetTemp = 300;
tauThermostat = 1e3;
tauBarostat = 1e6;

tempSet = "false";
useInitialTime = "false";
useInitialExtendedSystemState = "false";

## Last run using OpenMD version: 2.4, revision: fd0f4c5f3cdcbc202c6bcfaa808dcc9f85e3c147
  </MetaData>
  <Snapshot>
    <FrameData>
        Time: 0
        Hmat: {{ 27.23, 0, 0 }, { 0, 27.23, 0 }, { 0, 0, 100 }}
  Thermostat: 0 , 0
    Barostat: {{ 0, 0, 0 }, { 0, 0, 0 }, { 0, 0, 0 }}
    </FrameData>
    <StuntDoubles>
         0      pv           -10.6975           -10.6975            35.1375 -1.477236e-04 -1.991278e-04 -3.978902e-05
         1      pv           -12.6425           -12.6425            35.1375  1.836425e-04  4.415401e-04 -1.066665e-04
         2      pv           -10.6975           -12.6425            33.1925 -2.972320e-05 -6.933006e-05  2.987719e-05
         3      pv           -12.6425           -10.6975            33.1925 -6.195777e-06 -1.730822e-04  1.165783e-04
         4      pv           -10.6975           -10.6975            39.0275 -1.477236e-04 -1.991278e-04 -3.978902e-05
         5      pv           -12.6425           -12.6425            39.0275  1.836425e-04  4.415401e-04 -1.066665e-04
         6      pv           -10.6975           -12.6425            37.0825 -2.972320e-05 -6.933006e-05  2.987719e-05
         7      pv           -12.6425           -10.6975            37.0825 -6.195777e-06 -1.730822e-04  1.165783e-04
         8      pv           -10.6975           -10.6975            42.9175 -1.477236e-04 -1.991278e-04 -3.978902e-05
         9      pv           -12.6425           -12.6425            42.9175  1.836425e-04  4.415401e-04 -1.066665e-04
        10      pv           -10.6975           -12.6425            40.9725 -2.972320e-05 -6.933006e-05  2.987719e-05
        11      pv           -12.6425           -10.6975            40.9725 -6.195777e-06 -1.730822e-04  1.165783e-04
        12      pv           -10.6975           -10.6975            46.8075 -1.477236e-04 -1.991278e-04 -3.978902e-05
        13      pv           -12.6425           -12.6425            46.8075  1.836425e-04  4.415401e-04 -1.066665e-04
        14      pv           -10.6975           -12.6425            44.8625 -2.972320e-05 -6.933006e-05  2.987719e-05
        15      pv           -12.6425           -10.6975            44.8625 -6.195777e-06 -1.730822e-04  1.165783e-04
        16      pv           -10.6975            -6.8075            35.1375 -1.477236e-04 -1.991278e-04 -3.978902e-05
        17      pv           -12.6425            -8.7525            35.1375  1.836425e-04  4.415401e-04 -1.066665e-04
        18      pv           -10.6975            -8.7525            33.1925 -2.972320e-05 -6.933006e-05  2.987719e-05
        19      pv           -12.6425            -6.8075            33.1925 -6.195777e-06 -1.730822e-04  1.165783e-04
        20      pv           -10.6975            -6.8075            39.0275 -1.477236e-04 -1.991278e-04 -3.978902e-05
        21      pv           -12.6425            -8.7525            39.0275  1.836425e-04  4.415401e-04 -1.066665e-04
        22      pv           -10.6975            -8.7525            37.0825 -2.972320e-05 -6.933006e-05  2.987719e-05
        23      pv           -12.6425            -6.8075            37.0825 -6.195777e-06 -1.730822e-04  1.165783e-04
        24      pv           -10.6975            -6.8075            42.9175 -1.477236e-04 -1.991278e-04 -3.978902e-05
        25      pv           -12.6425            -8.7525            42.9175  1.836425e-04  4.415401e-04 -1.066665e-04
        26      pv           -10.6975            -8.7525            40.9725 -2.972320e-05 -6.933006e-05  2.987719e-05
        27      pv           -12.6425            -6.8075            40.9725 -6.195777e-06 -1.730822e-04  1.165783e-04
        28      pv           -10.6975            -6.8075            46.8075 -1.477236e-04 -1.991278e-04 -3.978902e-05
        29      pv           -12.6425            -8.7525            46.8075  1.836425e-04  4.415401e-04 -1.066665e-04
        30      pv           -10.6975            -8.7525            44.8625 -2.972320e-05 -6.933006e-05  2.987719e-05
        31      pv           -12.6425            -6.8075            44.8625 -6.195777e-06 -1.730822e-04  1.165783e-04
        32      pv           -10.6975            -2.9175            35.1375 -1.477236e-04 -1.991278e-04 -3.978902e-05
        33      pv           -12.6425            -4.8625            35.1375  1.836425e-04  4.415401e-04 -1.066665e-04
        34      pv           -10.6975            -4.8625            33.1925 -2.972320e-05 -6.933006e-05  2.987719e-05
        35      pv           -12.6425            -2.9175            33.1925 -6.195777e-06 -1.730822e-04  1.165783e-04
        36      pv           -10.6975            -2.9175            39.0275 -1.477236e-04 -1.991278e-04 -3.978902e-05
        37      pv           -12.6425            -4.8625            39.0275  1.836425e-04  4.415401e-04 -1.066665e-04
        38      pv           -10.6975            -4.8625            37.0825 -2.972320e-05 -6.933006e-05  2.987719e-05
        39      pv           -12.6425            -2.9175            37.0825 -6.195777e-06 -1.730822e-04  1.165783e-04
        40      pv           -10.6975            -2.9175            42.9175 -1.477236e-04 -1.991278e-04 -3.978902e-05
        41      pv           -12.6425            -4.8625            42.9175  1.836425e-04  4.415401e-04 -1.066665e-04
        42      pv           -10.6975            -4.8625            40.9725 -2.972320e-05 -6.933006e-05  2.987719e-05
        43      pv           -12.6425            -2.9175            40.9725 -6.195777e-06 -1.730822e-04  1.165783e-04
        44      pv           -10.6975            -2.9175            46.8075 -1.477236e-04 -1.991278e-04 -3.978902e-05
        45      pv           -12.6425            -4.8625            46.8075  1.836425e-04  4.415401e-04 -1.066665e-04
        46      pv           -10.6975            -4.8625            44.8625 -2.972320e-05 -6.933006e-05  2.987719e-05
        47      pv           -12.6425            -2.9175            44.8625 -6.195777e-06 -1.730822e-04  1.165783e-04
        48      pv           -10.6975             0.9725            35.1375 -1.477236e-04 -1.991278e-04 -3.978902e-05
        49      pv           -12.6425            -0.9725            35.1375  1.836425e-04  4.415401e-04 -1.066665e-04
        50      pv           -10.6975            -0.9725            33.1925 -2.972320e-05 -6.933006e-05  2.987719e-05
        51      pv           -12.6425             0.9725            33.1925 -6.195777e-06 -1.730822e-04  1.165783e-04
        52      pv           -10.6975             0.9725            39.0275 -1.477236e-04 -1.991278e-04 -3.978902e-05
        53      pv           -12.6425            -0.9725            39.0275  1.836425e-04  4.415401e-04 -1.066665e-04
        54      pv           -10.6975            -0.9725            37.0825 -2.972320e-05 -6.933006e-05  2.987719e-05
        55      pv           -12.6425             0.9725            37.0825 -6.195777e-06 -1.730822e-04  1.165783e-04
        56      pv           -10.6975             0.9725            42.9175 -1.477236e-04 -1.991278e-04 -3.978902e-05
        57      pv           -12.6425            -0.9725            42.9175  1.836425e-04  4.415401e-04 -1.066665e-04
        58      pv           -10.6975            -0.9725            40.9725 -2.972320e-05 -6.933006e-05  2.987719e-05
        59      pv           -12.6425             0.9725            40.9725 -6.195777e-06 -1.730822e-04  1.165783e-04
        60      pv           -10.6975             0.9725            46.8075 -1.477236e-04 -1.991278e-04 -3.978902e-05
        61      pv           -12.6425            -0.9725            46.8075  1.836425e-04  4.415401e-04 -1.066665e-04
        62      pv           -10.6975            -0.9725            44.8625 -2.972320e-05 -6.933006e-05  2.987719e-05
        63      pv           -12.6425             0.9725            44.8625 -6.195777e-06 -1.730822e-04  1.165783e-04
        64      pv           -10.6975             4.8625            35.1375 -1.477236e-04 -1.991278e-04 -3.978902e-05
        65      pv           -12.6425             2.9175            35.1375  1.836425e-04  4.415401e-04 -1.066665e-04
        66      pv           -10.6975             2.9175            33.1925 -2.972320e-05 -6.933006e-05  2.987719e-05
        67      pv           -12.6425             4.8625            33.1925 -6.195777e-06 -1.730822e-04  1.165783e-04
        68      pv           -10.6975             4.8625            39.0275 -1.477236e-04 -1.991278e-04 -3.978902e-05
        69      pv           -12.6425             2.9175            39.0275  1.836425e-04  4.415401e-04 -1.066665e-04
        70      pv           -10.6975             2.9175            37.0825 -2.972320e-05 -6.933006e-05  2.987719e-05
        71      pv           -12.6425             4.8625            37.0825 -6.195777e-06 -1.730822e-04  1.165783e-04
        72      pv           -10.6975             4.8625            42.9175 -1.477236e-04 -1.991278e-04 -3.978902e-05
        73      pv           -12.6425             2.9175            42.9175  1.836425e-04  4.415401e-04 -1.066665e-04
        74      pv           -10.6975             2.9175            40.9725 -2.972320e-05 -6.933006e-05  2.987719e-05
        75      pv           -12.6425             4.8625            40.9725 -6.195777e-06 -1.730822e-04  1.165783e-04
        76      pv           -10.6975             4.8625            46.8075 -1.477236e-04 -1.991278e-04 -3.978902e-05
        77      pv           -12.6425             2.9175            46.8075  1.836425e-04  4.415401e-04 -1.066665e-04
        78      pv           -10.6975             2.9175            44.8625 -2.972320e-05 -6.933006e-05  2.987719e-05
        79      pv           -12.6425             4.8625            44.8625 -6.195777e-06 -1.730822e-04  1.165783e-04
        80      pv           -10.6975             8.7525            35.1375 -1.477236e-04 -1.991278e-04 -3.978902e-05
        81      pv           -12.6425             6.8075            35.1375  1.836425e-04  4.415401e-04 -1.066665e-04
        82      pv           -10.6975             6.8075            33.1925 -2.972320e-05 -6.933006e-05  2.987719e-05
        83      pv           -12.6425             8.7525            33.1925 -6.195777e-06 -1.730822e-04  1.165783e-04
        84      pv           -10.6975             8.7525            39.0275 -1.477236e-04 -1.991278e-04 -3.978902e-05
        85      pv           -12.6425             6.8075            39.0275  1.836425e-04  4.415401e-04 -1.066665e-04
        86      pv           -10.6975             6.8075            37.0825 -2.972320e-05 -6.933006e-05  2.987719e-05
        87      pv           -12.6425             8.7525            37.0825 -6.195777e-06 -1.730822e-04  1.165783e-04
        88      pv           -10.6975             8.7525            42.9175 -1.477236e-04 -1.991278e-04 -3.978902e-05
        89      pv           -12.6425             6.8075            42.9175  1.836425e-04  4.415401e-04 -1.066665e-04
        90      pv           -10.6975             6.8075            40.9725 -2.972320e-05 -6.933006e-05  2.987719e-05
        91      pv           -12.6425             8.7525            40.9725 -6.195777e-06 -1.730822e-04  1.165783e-04
        92      pv           -10.6975             8.7525            46.8075 -1.477236e-04 -1.991278e-04 -3.978902e-05
        93      pv           -12.6425             6.8075            46.8075  1.836425e-04  4.415401e-04 -1.066665e-04
        94      pv           -10.6975             6.8075            44.8625 -2.972320e-05 -6.933006e-05  2.987719e-05
        95      pv           -12.6425             8.7525            44.8625 -6.195777e-06 -1.730822e-04  1.165783e-04
        96      pv           -10.6975            12.6425            35.1375 -1.477236e-04 -1.991278e-04 -3.978902e-05
        97      pv           -12.6425            10.6975            35.1375  1.836425e-04  4.415401e-04 -1.066665e-04
        98      pv           -10.6975            10.6975            33.1925 -2.972320e-05 -6.933006e-05  2.987719e-05
        99      pv           -12.6425            12.6425            33.1925 -6.195777e-06 -1.730822e-04  1.165783e-04
       100      pv           -10.6975            12.6425            39.0275 -1.477236e-04 -1.991278e-04 -3.978902e-05
       101      pv           -12.6425            10.6975            39.0275  1.836425e-04  4.415401e-04 -1.066665e-04
       102      pv           -10.6975            10.6975            37.0825 -2.972320e-05 -6.933006e-05  2.987719e-05
       103      pv           -12.6425            12.6425            37.0825 -6.195777e-06 -1.730822e-04  1.165783e-04
       104      pv           -10.6975            12.6425            42.9175 -1.477236e-04 -1.991278e-04 -3.978902e-05
       105      pv           -12.6425            10.6975            42.9175  1.836425e-04  4.415401e-04 -1.066665e-04
       106      pv           -10.6975            10.6975            40.9725 -2.972320e-05 -6.933006e-05  2.987719e-05
       107      pv           -12.6425            12.6425            40.9725 -6.195777e-06 -1.730822e-04  1.165783e-04
       108      pv           -10.6975            12.6425            46.8075 -1.477236e-04 -1.991278e-04 -3.978902e-05
       109      pv           -12.6425            10.6975            46.8075  1.836425e-04  4.415401e-04 -1.066665e-04
       110      pv           -10.6975            10.6975            44.8625 -2.972320e-05 -6.933006e-05  2.987719e-05
       111      pv           -12.6425            12.6425            44.8625 -6.195777e-06 -1.730822e-04  1.165783e-04
       112      pv            -6.8075           -10.6975            35.1375 -1.477236e-04 -1.991278e-04 -3.978902e-05
       113      pv            -8.7525           -12.6425            35.1375  1.836425e-04  4.415401e-04 -1.066665e-04
       114      pv            -6.8075           -12.6425            33.1925 -2.972320e-05 -6.933006e-05  2.987719e-05
       115      pv            -8.7525           -10.6975            33.1925 -6.195777e-06 -1.730822e-04  1.165783e-04
       116      pv            -6.8075           -10.6975            39.0275 -1.477236e-04 -1.991278e-04 -3.978902e-05
       117      pv            -8.7525           -12.6425            39.0275  1.836425e-04  4.415401e-04 -1.066665e-04
       118      pv            -6.8075           -12.6425            37.0825 -2.972320e-05 -6.933006e-05  2.987719e-05
       119      pv            -8.7525           -10.6975            37.0825 -6.195777e-06 -1.730822e-04  1.165783e-04
       120      pv            -6.8075           -10.6975            42.9175 -1.477236e-04 -1.991278e-04 -3.978902e-05
       121      pv            -8.7525           -12.6425            42.9175  1.836425e-04  4.415401e-04 -1.066665e-04
       122      pv            -6.8075           -12.6425            40.9725 -2.972320e-05 -6.933006e-05  2.987719e-05
       123      pv            -8.7525           -10.6975            40.9725 -6.195777e-06 -1.730822e-04  1.165783e-04
       124      pv            -6.8075           -10.6975            46.8075 -1.477236e-04 -1.991278e-04 -3.978902e-05
       125      pv            -8.7525           -12.6425            46.8075  1.836425e-04  4.415401e-04 -1.066665e-04
       126      pv            -6.8075           -12.6425            44.8625 -2.972320e-05 -6.933006e-05  2.987719e-05
       127      pv            -8.7525           -10.6975            44.8625 -6.195777e-06 -1.730822e-04  1.165783e-04
       128      pv            -6.8075            -6.8075            35.1375 -1.477236e-04 -1.991278e-04 -3.978902e-05
       129      pv            -8.7525            -8.7525            35.1375  1.836425e-04  4.415401e-04 -1.066665e-04
       130      pv            -6.8075            -8.7525            33.1925 -2.972320e-05 -6.933006e-05  2.987719e-05
       131      pv            -8.7525            -6.8075            33.1925 -6.195777e-06 -1.730822e-04  1.165783e-04
       132      pv            -6.8075            -6.8075            39.0275 -1.477236e-04 -1.991278e-04 -3.978902e-05
       133      pv            -8.7525            -8.7525            39.0275  1.836425e-04  4.415401e-04 -1.066665e-04
       134      pv            -6.8075            -8.7525            37.0825 -2.972320e-05 -6.933006e-05  2.987719e-05
       135      pv            -8.7525            -6.8075            37.0825 -6.195777e-06 -1.730822e-04  1.165783e-04
       136      pv            -6.8075            -6.8075            42.9175 -1.477236e-04 -1.991278e-04 -3.978902e-05
       137      pv            -8.7525            -8.7525            42.9175  1.836425e-04  4.415401e-04 -1.066665e-04
       138      pv            -6.8075            -8.7525            40.9725 -2.972320e-05 -6.933006e-05  2.987719e-05
       139      pv            -8.7525            -6.8075            40.9725 -6.195777e-06 -1.730822e-04  1.165783e-04
       140      pv            -6.8075            -6.8075            46.8075 -1.477236e-04 -1.991278e-04 -3.978902e-05
       141      pv            -8.7525            -8.7525            46.8075  1.836425e-04  4.415401e-04 -1.066665e-04
       142      pv            -6.8075            -8.7525            44.8625 -2.972320e-05 -6.933006e-05  2.987719e-05
       143      pv            -8.7525            -6.8075            44.8625 -6.195777e-06 -1.730822e-04  1.165783e-04
       144      pv            -6.8075            -2.9175            35.1375 -1.477236e-04 -1.991278e-04 -3.978902e-05
       145      pv            -8.7525            -4.8625            35.1375  1.836425e-04  4.415401e-04 -1.066665e-04
       146      pv            -6.8075            -4.8625            33.1925 -2.972320e-05 -6.933006e-05  2.987719e-05
       147      pv            -8.7525            -2.9175            33.1925 -6.195777e-06 -1.730822e-04  1.165783e-04
       148      pv            -6.8075            -2.9175            39.0275 -1.477236e-04 -1.991278e-04 -3.978902e-05
       149      pv            -8.7525            -4.8625            39.0275  1.836425e-04  4.415401e-04 -1.066665e-04
       150      pv            -6.8075            -4.8625            37.0825 -2.972320e-05 -6.933006e-05  2.987719e-05
       151      pv            -8.7525            -2.9175            37.0825 -6.195777e-06 -1.730822e-04  1.165783e-04
       152      pv            -6.8075            -2.9175            42.9175 -1.477236e-04 -1.991278e-04 -3.978902e-05
       153      pv            -8.7525            -4.8625            42.9175  1.836425e-04  4.415401e-04 -1.066665e-04
       154      pv            -6.8075            -4.8625            40.9725 -2.972320e-05 -6.933006e-05  2.987719e-05
       155      pv            -8.7525            -2.9175            40.9725 -6.195777e-06 -1.730822e-04  1.165783e-04
       156      pv            -6.8075            -2.9175            46.8075 -1.477236e-04 -1.991278e-04 -3.978902e-05
       157      pv            -8.7525            -4.8625            46.8075  1.836425e-04  4.415401e-04 -1.066665e-04
       158      pv            -6.8075            -4.8625            44.8625 -2.972320e-05 -6.933006e-05  2.987719e-05
       159      pv            -8.7525            -2.9175            44.8625 -6.195777e-06 -1.730822e-04  1.165783e-04
       160      pv            -6.8075             0.9725            35.1375 -1.477236e-04 -1.991278e-04 -3.978902e-05
       161      pv            -8.7525            -0.9725            35.1375  1.836425e-04  4.415401e-04 -1.066665e-04
       162      pv            -6.8075            -0.9725            33.1925 -2.972320e-05 -6.933006e-05  2.987719e-05
       163      pv            -8.7525             0.9725            33.1925 -6.195777e-06 -1.730822e-04  1.165783e-04
       164      pv            -6.8075             0.9725            39.0275 -1.477236e-04 -1.991278e-04 -3.978902e-05
       165      pv            -8.7525            -0.9725            39.0275  1.836425e-04  4.415401e-04 -1.066665e-04
       166      pv            -6.8075            -0.9725            37.0825 -2.972320e-05 -6.933006e-05  2.987719e-05
       167      pv            -8.7525             0.9725            37.0825 -6.195777e-06 -1.730822e-04  1.165783e-04
       168      pv            -6.8075             0.9725            42.9175 -1.477236e-04 -1.991278e-04 -3.978902e-05
       169      pv            -8.7525            -0.9725            42.9175  1.836425e-04  4.415401e-04 -1.066665e-04
       170      pv            -6.8075            -0.9725            40.9725 -2.972320e-05 -6.933006e-05  2.987719e-05
       171      pv            -8.7525             0.9725            40.9725 -6.195777e-06 -1.730822e-04  1.165783e-04
       172      pv            -6.8075             0.9725            46.8075 -1.477236e-04 -1.991278e-04 -3.978902e-05
       173      pv            -8.7525            -0.9725            46.8075  1.836425e-04  4.415401e-04 -1.066665e-04
       174      pv            -6.8075            -0.9725            44.8625 -2.972320e-05 -6.933006e-05  2.987719e-05
       175      pv            -8.7525             0.9725            44.8625 -6.195777e-06 -1.730822e-04  1.165783e-04
       176      pv            -6.8075             4.8625            35.1375 -1.477236e-04 -1.991278e-04 -3.978902e-05
       177      pv            -8.7525             2.9175            35.1375  1.836425e-04  4.415401e-04 -1.066665e-04
       178      pv            -6.8075             2.9175            33.1925 -2.972320e-05 -6.933006e-05  2.987719e-05
       179      pv            -8.7525             4.8625            33.1925 -6.195777e-06 -1.730822e-04  1.165783e-04
       180      pv            -6.8075             4.8625            39.0275 -1.477236e-04 -1.991278e-04 -3.978902e-05
       181      pv            -8.7525             2.9175            39.0275  1.836425e-04  4.415401e-04 -1.066665e-04
       182      pv            -6.8075             2.9175            37.0825 -2.972320e-05 -6.933006e-05  2.987719e-05
       183      pv            -8.7525             4.8625            37.0825 -6.195777e-06 -1.730822e-04  1.165783e-04
       184      pv            -6.8075             4.8625            42.9175 -1.477236e-04 -1.991278e-04 -3.978902e-05
       185      pv            -8.7525             2.9175            42.9175  1.836425e-04  4.415401e-04 -1.066665e-04
       186      pv            -6.8075             2.9175            40.9725 -2.972320e-05 -6.933006e-05  2.987719e-05
       187      pv            -8.7525             4.8625            40.9725 -6.195777e-06 -1.730822e-04  1.165783e-04
       188      pv            -6.8075             4.8625            46.8075 -1.477236e-04 -1.991278e-04 -3.978902e-05
       189      pv            -8.7525             2.9175            46.8075  1.836425e-04  4.415401e-04 -1.066665e-04
       190      pv            -6.8075             2.9175            44.8625 -2.972320e-05 -6.933006e-05  2.987719e-05
       191      pv            -8.7525             4.8625            44.8625 -6.195777e-06 -1.730822e-04  1.165783e-04
       192      pv            -6.8075             8.7525            35.1375 -1.477236e-04 -1.991278e-04 -3.978902e-05
       193      pv            -8.7525             6.8075            35.1375  1.836425e-04  4.415401e-04 -1.066665e-04
       194      pv            -6.8075             6.8075            33.1925 -2.972320e-05 -6.933006e-05  2.987719e-05
       195      pv            -8.7525             8.7525            33.1925 -6.195777e-06 -1.730822e-04  1.165783e-04
       196      pv            -6.8075             8.7525            39.0275 -1.477236e-04 -1.991278e-04 -3.978902e-05
       197      pv            -8.7525             6.8075            39.0275  1.836425e-04  4.415401e-04 -1.066665e-04
       198      pv            -6.8075             6.8075            37.0825 -2.972320e-05 -6.933006e-05  2.987719e-05
       199      pv            -8.7525             8.7525            37.0825 -6.195777e-06 -1.730822e-04  1.165783e-04
       200      pv            -6.8075             8.7525            42.9175 -1.477236e-04 -1.991278e-04 -3.978902e-05
       201      pv            -8.7525             6.8075            42.9175  1.836425e-04  4.415401e-04 -1.066665e-04
       202      pv            -6.8075             6.8075            40.9725 -2.972320e-05 -6.933006e-05  2.987719e-05
       203      pv            -8.7525             8.7525            40.9725 -6.195777e-06 -1.730822e-04  1.165783e-04
       204      pv            -6.8075             8.7525            46.8075 -1.477236e-04 -1.991278e-04 -3.978902e-05
       205      pv            -8.7525             6.8075            46.8075  1.836425e-04  4.415401e-04 -1.066665e-04
       206      pv            -6.8075             6.8075            44.8625 -2.972320e-05 -6.933006e-05  2.987719e-05
       207      pv            -8.7525             8.7525            44.8625 -6.195777e-06 -1.730822e-04  1.165783e-04
       208      pv            -6.8075            12.6425            35.1375 -1.477236e-04 -1.991278e-04 -3.978902e-05
       209      pv            -8.7525            10.6975            35.1375  1.836425e-04  4.415401e-04 -1.066665e-04
       210      pv            -6.8075            10.6975            33.1925 -2.972320e-05 -6.933006e-05  2.987719e-05
       211      pv            -8.7525            12.6425            33.1925 -6.195777e-06 -1.730822e-04  1.165783e-04
       212      pv            -6.8075            12.6425            39.0275 -1.477236e-04 -1.991278e-04 -3.978902e-05
       213      pv            -8.7525            10.6975            39.0275  1.836425e-04  4.415401e-04 -1.066665e-04
       214      pv            -6.8075            10.6975            37.0825 -2.972320e-05 -6.933006e-05  2.987719e-05
       215      pv            -8.7525            12.6425            37.0825 -6.195777e-06 -1.730822e-04  1.165783e-04
       216      pv            -6.8075            12.6425            42.9175 -1.477236e-04 -1.991278e-04 -3.978902e-05
       217      pv            -8.7525            10.6975            42.9175  1.836425e-04  4.415401e-04 -1.066665e-04
       218      pv            -6.8075            10.6975            40.9725 -2.972320e-05 -6.933006e-05  2.987719e-05
       219      pv            -8.7525            12.6425            40.9725 -6.195777e-06 -1.730822e-04  1.165783e-04
       220      pv            -6.8075            12.6425            46.8075 -1.477236e-04 -1.991278e-04 -3.978902e-05
       221      pv            -8.7525            10.6975            46.8075  1.836425e-04  4.415401e-04 -1.066665e-04
       222      pv            -6.8075            10.6975            44.8625 -2.972320e-05 -6.933006e-05  2.987719e-05
       223      pv            -8.7525            12.6425            44.8625 -6.195777e-06 -1.730822e-04  1.165783e-04
       224      pv            -2.9175           -10.6975            35.1375 -1.477236e-04 -1.991278e-04 -3.978902e-05
       225      pv            -4.8625           -12.6425            35.1375  1.836425e-04  4.415401e-04 -1.066665e-04
       226      pv            -2.9175           -12.6425            33.1925 -2.972320e-05 -6.933006e-05  2.987719e-05
       227      pv            -4.8625           -10.6975            33.1925 -6.195777e-06 -1.730822e-04  1.165783e-04
       228      pv            -2.9175           -10.6975            39.0275 -1.477236e-04 -1.991278e-04 -3.978902e-05
       229      pv            -4.8625           -12.6425            39.0275  1.836425e-04  4.415401e-04 -1.066665e-04
       230      pv            -2.9175           -12.6425            37.0825 -2.972320e-05 -6.933006e-05  2.987719e-05
       231      pv            -4.8625           -10.6975            37.0825 -6.195777e-06 -1.730822e-04  1.165783e-04
       232      pv            -2.9175           -10.6975            42.9175 -1.477236e-04 -1.991278e-04 -3.978902e-05
       233      pv            -4.8625           -12.6425            42.9175  1.836425e-04  4.415401e-04 -1.066665e-04
       234      pv            -2.9175           -12.6425            40.9725 -2.972320e-05 -6.933006e-05  2.987719e-05
       235      pv            -4.8625           -10.6975            40.9725 -6.195777e-06 -1.730822e-04  1.165783e-04
       236      pv            -2.9175           -10.6975            46.8075 -1.477236e-04 -1.991278e-04 -3.978902e-05
       237      pv            -4.8625           -12.6425            46.8075  1.836425e-04  4.415401e-04 -1.066665e-04
       238      pv            -2.9175           -12.6425            44.8625 -2.972320e-05 -6.933006e-05  2.987719e-05
       239      pv            -4.8625           -10.6975            44.8625 -6.195777e-06 -1.730822e-04  1.165783e-04
       240      pv            -2.9175            -6.8075            35.1375 -1.477236e-04 -1.991278e-04 -3.978902e-05
       241      pv            -4.8625            -8.7525            35.1375  1.836425e-04  4.415401e-04 -1.066665e-04
       242      pv            -2.9175            -8.7525            33.1925 -2.972320e-05 -6.933006e-05  2.987719e-05