<OpenMD version=1>
  <MetaData>

molecule {
  name = "TIP4P_FQ";

  atom[0]{
    type = "O_TIP4P_FQ";
    position( 0.0, 0.0, -0.06556 );
  }
  atom[1]{
    type = "H_TIP4P_FQ";
    position( 0.0, 0.75695, 0.52032 );
  }
  atom[2]{
    type = "H_TIP4P_FQ";
    position( 0.0, -0.75695, 0.52032 );
  }
  atom[3]{
    type = "M_TIP4P_FQ";
    position( 0.0, 0.0, 0.08444 );
  }

  rigidBody[0]{
    members(0,1,2,3);
  }
}
component{
  type = "TIP4P_FQ";
  nMol = 256;
}


ensemble = NVE;
forceField = "FlucQ";
forceFieldFileName = "FQ.frc";
cutoffMethod = "shifted_force";
dielectric = 80.0;
cutoffRadius = 9.0;
switchingRadius = 7.7;
outputFluctuatingCharges = true;

targetTemp = 300;
targetPressure = 1.0;

tauThermostat = 1e3;
tauBarostat = 1e4;

dt = 1.0;
runTime = 1e4;
useInitialTime = "false";
useInitialExtendedSystemState = "false";

//tempSet = "true";
//thermalTime = 10;
sampleTime = 100;
statusTime = 10;
  </MetaData>
  <Snapshot>
    <FrameData>
        Time: 20000
        Hmat: {{ 19.713, 0, 0 }, { 0, 19.713, 0 }, { 0, 0, 19.713 }}
    </FrameData>
    <StuntDoubles>
         0    pvqj         -13.918126          -9.532354          -9.870907 -9.930000e-04 -2.397000e-03 -1.573000e-03  5.072750e-01 -7.075410e-01  3.148250e-01 -3.780790e-01  1.549000e-03  3.620000e-03  1.009100e-02
         1    pvqj         -19.481854           -8.15571          -3.253424 -2.782000e-03 -6.600000e-04  4.056000e-03  9.326000e-03  1.858280e-01 -9.793550e-01 -7.903000e-02 -6.290000e-04 -1.134100e-02 -1.901100e-02
         2    pvqj         -13.946671         -11.078283          -1.209695  2.557000e-03 -1.394000e-03 -1.485000e-03  7.339240e-01 -4.603200e-02  5.683070e-01  3.691400e-01 -5.753000e-03 -1.450000e-02  3.413000e-03
         3    pvqj         -13.485138          -2.016395         -10.456715 -1.948000e-03  1.813000e-03  2.672000e-03  5.095830e-01  5.907020e-01 -4.768660e-01 -4.049620e-01 -2.625000e-03  3.734000e-03 -1.820900e-02
         4    pvqj          -5.597899           5.650991         -20.400002 -8.359000e-03  2.892000e-03  7.340000e-04  1.157020e-01  7.193180e-01 -6.478220e-01 -2.225330e-01 -2.413400e-02  8.735000e-03  3.321800e-02
         5    pvqj         -11.089212          -9.453815           1.685241 -2.491000e-03 -2.281000e-03 -4.921000e-03  2.514300e-01  8.447800e-02  6.097640e-01  7.468830e-01 -2.518000e-02 -7.950000e-03 -1.010400e-02
         6    pvqj         -10.444242         -15.128951         -15.752216  4.540000e-03 -3.375000e-03 -5.400000e-03  2.941950e-01  8.705700e-02 -3.810600e-02  9.510090e-01  3.975400e-02  5.119000e-03  2.462300e-02
         7    pvqj           3.317776          -1.337548           5.318506  3.766000e-03  8.351000e-03  3.970000e-04  1.023090e-01  9.775910e-01 -7.413100e-02  1.683850e-01  1.924700e-02 -7.325000e-03  2.420000e-03
         8    pvqj           -4.60797         -12.518531           4.478691  3.551000e-03 -1.679000e-03 -1.854000e-03  6.120480e-01  2.058370e-01  1.675500e-02 -7.633790e-01  2.175900e-02 -1.230000e-03 -1.353000e-03
         9    pvqj          -9.299621         -11.718563          -8.669747 -2.625000e-03 -2.330000e-03  8.900000e-04  1.212800e-01 -9.449090e-01  2.994490e-01  5.261200e-02  3.955100e-02 -2.147900e-02  1.448600e-02
        10    pvqj          -2.724246          -8.727553         -20.443533  6.268000e-03  6.045000e-03  5.357000e-03  5.479000e-02 -1.221960e-01  4.495850e-01  8.831420e-01 -2.956200e-02  1.361000e-03 -1.011600e-02
        11    pvqj           3.568553         -22.345322          -9.499167  3.037000e-03 -2.844000e-03  6.664000e-03  2.999460e-01  8.291940e-01 -3.183480e-01 -3.480310e-01 -3.898900e-02  6.094000e-03 -3.028800e-02
        12    pvqj           2.394994          -7.571198         -31.346662 -6.860000e-04  5.242000e-03  5.844000e-03  8.668400e-01 -1.131300e-02  4.729300e-01 -1.574720e-01  1.494900e-02  4.655000e-03  2.016900e-02
        13    pvqj           5.483833          -8.065616         -15.101809  8.606000e-03 -1.970000e-03 -4.004000e-03  5.292370e-01  6.354570e-01 -5.389670e-01 -1.600560e-01  2.122000e-03  1.212200e-02  1.074600e-02
        14    pvqj           4.112928          -1.059971         -11.868027 -2.349000e-03  3.038000e-03  2.341000e-03  2.691820e-01 -8.698170e-01  4.104780e-01 -4.967200e-02 -8.154000e-03  1.116800e-02  1.194200e-02
        15    pvqj          25.829212          -3.898395          -6.074442  1.296600e-02 -1.450000e-03 -2.595000e-03  4.122530e-01 -5.358970e-01 -1.830800e-02  7.365640e-01  1.816900e-02  8.335000e-03  1.631400e-02
        16    pvqj         -15.110425         -16.323314          10.862026  6.410000e-04  4.930000e-04  2.787000e-03  5.959990e-01 -2.070080e-01  7.387900e-01 -2.369000e-01 -1.137600e-02  5.776000e-03 -1.908800e-02
        17    pvqj            1.23192         -14.818381          -6.071994 -2.099000e-03 -2.309000e-03  7.170000e-04  3.061920e-01 -5.706080e-01 -6.726880e-01 -3.579720e-01  6.696000e-03  1.542000e-03  8.215000e-03
        18    pvqj           6.436876           0.141788           0.778156 -3.560000e-04  4.290000e-03 -3.744000e-03  3.915500e-02 -7.780880e-01  2.678320e-01  5.668440e-01 -1.999600e-02  8.773000e-03  1.383700e-02
        19    pvqj          -3.216006          -8.602252          -4.950282 -5.250000e-04  4.335000e-03  1.596000e-03  2.960200e-01  6.899500e-02  2.631690e-01  9.156170e-01 -2.447900e-02 -1.356100e-02  1.408900e-02
        20    pvqj          -7.005391           -12.2134         -14.049853 -3.081000e-03 -1.493000e-03  4.900000e-05  1.047270e-01  6.357900e-02 -2.204230e-01  9.676790e-01  3.770000e-03  7.984000e-03  1.081000e-02
        21    pvqj          -8.437161           2.564279          -5.725857  2.519000e-03 -1.830000e-04  4.563000e-03  6.616000e-01  1.954260e-01  3.622200e-01 -6.268100e-01 -1.167700e-02  3.393000e-03 -6.594000e-03
        22    pvqj         -11.311901          -3.321411         -10.010777  9.230000e-04  1.161000e-03 -7.723000e-03  6.892250e-01  3.345700e-02 -6.940240e-01  2.053760e-01 -4.104700e-02 -3.283000e-03 -1.186400e-02
        23    pvqj          -0.202349         -18.567658          -5.008206  2.302000e-03  2.572000e-03 -2.615000e-03  2.681300e-01  2.534870e-01  9.175870e-01 -1.479340e-01 -2.076900e-02 -3.280000e-03  1.097700e-02
        24    pvqj          -4.718267          -5.705897           0.157936 -4.609000e-03 -6.507000e-03  3.863000e-03  3.940080e-01 -9.797200e-02 -4.116510e-01  8.159060e-01 -9.919000e-03 -4.087000e-03  5.169400e-02
        25    pvqj           5.870889          -1.789255          -4.442291 -8.986000e-03  3.970000e-04 -4.010000e-03  5.821130e-01 -2.168550e-01  4.551730e-01  6.379150e-01  3.223500e-02 -2.947000e-03  7.963000e-03
        26    pvqj         -12.736961           7.345559         -24.460622 -2.393000e-03  1.805000e-03 -1.610000e-03  3.203130e-01  8.604290e-01  2.703470e-01  2.897810e-01 -1.424200e-02 -4.094000e-03  1.774400e-02
        27    pvqj          11.702945          -0.842413         -14.102091 -3.825000e-03 -1.469000e-03  4.644000e-03  2.496630e-01  1.143890e-01  9.322900e-01 -2.354140e-01 -1.649200e-02 -4.848000e-03 -1.431100e-02
        28    pvqj          -5.589202          -6.056625         -28.229721 -2.368000e-03  2.945000e-03 -3.408000e-03  5.037760e-01 -2.661880e-01  6.354690e-01  5.210880e-01  1.605500e-02 -7.100000e-05  9.171000e-03
        29    pvqj           0.486158          -2.658354         -19.144532  4.947000e-03 -6.564000e-03  9.425000e-03  3.715720e-01 -1.999670e-01  7.958470e-01 -4.342530e-01  1.835700e-02  9.749000e-03 -2.036600e-02
        30    pvqj           8.388377         -17.315561           5.268302 -4.421000e-03 -8.596000e-03 -2.948000e-03  2.854580e-01  8.064370e-01  1.387950e-01 -4.989080e-01  4.560400e-02 -8.579000e-03 -3.155900e-02
        31    pvqj           1.795655           3.453365           2.644033  5.038000e-03 -3.375000e-03 -6.610000e-03  6.144250e-01 -1.598100e-01 -4.108910e-01  6.543020e-01  2.053500e-02 -2.062000e-03 -5.070000e-03
        32    pvqj           -23.7538           -8.93787         -18.119562  3.310000e-04 -2.283000e-03 -4.038000e-03  7.701110e-01  5.307280e-01 -1.013100e-01 -3.391050e-01  3.084500e-02  1.864400e-02  1.941200e-02
        33    pvqj           -9.17808          -1.868241          -5.845135  4.580000e-03  3.382000e-03 -2.632000e-03  2.041620e-01 -7.269330e-01  6.254270e-01  1.967920e-01 -2.160900e-02 -3.646000e-03  1.278300e-02
        34    pvqj         -11.579404          -8.616679         -15.554397  4.644000e-03  6.042000e-03  1.102000e-03  3.507400e-02  6.950260e-01  1.091380e-01 -7.097870e-01  4.817200e-02  1.872800e-02 -2.708000e-02
        35    pvqj          -3.601819         -14.937549         -16.207257 -8.400000e-04  1.957000e-03 -2.098000e-03  8.074180e-01 -2.954170e-01  3.785160e-01  3.428260e-01 -1.806900e-02 -1.310600e-02 -1.103500e-02
        36    pvqj         -12.434971          -5.775508          -9.547925  3.715000e-03 -3.342000e-03 -5.567000e-03  7.381190e-01  1.604510e-01 -2.272790e-01  6.146380e-01 -7.880000e-03 -9.871000e-03  1.996000e-03
        37    pvqj          -1.552122           5.089453           -6.51923  2.193000e-03 -3.320000e-04  2.480000e-04  4.484070e-01 -3.158010e-01 -5.979460e-01  5.845180e-01  2.648400e-02  2.371000e-03 -1.798700e-02
        38    pvqj           -7.34702          -3.640187          -4.455179  6.103000e-03 -2.888000e-03  2.270000e-04  7.632200e-02  1.926490e-01 -9.769020e-01  5.218600e-02  4.018000e-03  4.748000e-03  6.089000e-03
        39    pvqj         -12.615927           -1.88066          -16.96129  5.730000e-04  1.003000e-03 -2.530000e-04  6.947870e-01 -6.887100e-01  2.066310e-01  1.592200e-02 -2.938900e-02 -1.108800e-02 -1.643900e-02
        40    pvqj          -0.618781           8.135343         -18.160288  1.433000e-03 -9.164000e-03  2.148000e-03  1.656150e-01  3.790960e-01 -7.772400e-01  4.740840e-01  2.599700e-02 -3.234000e-03  3.345000e-03
        41    pvqj           2.981107           0.175095          10.307284 -3.145000e-03  6.650000e-04 -7.071000e-03  6.481220e-01  6.102350e-01  2.725540e-01  3.650550e-01  1.890700e-02  1.019900e-02 -1.744400e-02
        42    pvqj           12.22936          -2.833768          -19.48737 -1.595000e-03 -1.296000e-03 -4.190000e-04  2.863670e-01  6.744090e-01 -2.298200e-01  6.405850e-01 -2.736100e-02 -3.266000e-03 -1.425000e-02
        43    pvqj            2.38654         -11.673506          -0.783886 -2.055000e-03 -2.295000e-03  1.813000e-03  4.962780e-01 -7.476400e-01  1.633630e-01 -4.099450e-01 -2.002600e-02 -1.361000e-03 -4.111500e-02
        44    pvqj          -0.127646           8.481081         -12.380639 -2.407000e-03  9.230000e-04 -1.455000e-03  6.201600e-02  8.825400e-01  3.227920e-01  3.362760e-01  1.757700e-02 -5.521000e-03  1.221400e-02
        45    pvqj           8.061017          -2.111359          -7.423338  8.401000e-03  1.924000e-03  6.390000e-04  1.876870e-01 -3.245080e-01 -7.044880e-01  6.026310e-01  3.112000e-03  4.826000e-03 -6.545000e-03
        46    pvqj          18.002817           8.872147          -6.308631  6.342000e-03 -2.406000e-03 -3.725000e-03  8.734560e-01 -8.539800e-02 -4.697450e-01 -9.551200e-02 -2.005400e-02  1.899000e-02 -1.247800e-02
        47    pvqj           9.245194           2.964644           1.714768 -2.352000e-03  5.483000e-03  5.292000e-03  2.384060e-01  7.743000e-02 -7.678290e-01 -5.895810e-01 -1.248100e-02 -1.896000e-03  2.464000e-03
        48    pvqj         -13.995853           3.085775         -15.381636 -2.633000e-03 -5.072000e-03 -2.584000e-03  3.236000e-03  2.491480e-01  9.303760e-01 -2.689140e-01 -2.620100e-02 -1.476300e-02 -2.255100e-02
        49    pvqj          -4.596007           3.760333         -18.587734 -1.939000e-03  7.230000e-04  1.899000e-03  1.591190e-01 -1.596750e-01 -6.678110e-01 -7.093750e-01  2.326100e-02 -8.088000e-03  5.266000e-03
        50    pvqj          -5.380152           4.277235         -11.434417  8.105000e-03  5.847000e-03  1.367000e-03  2.823970e-01  8.478040e-01  4.440340e-01  6.568000e-02 -2.951200e-02  6.384000e-03  1.521800e-02
        51    pvqj          -6.069339           4.261838          -3.514456 -1.515000e-03 -1.910000e-03  3.497000e-03  4.569650e-01  6.132500e-01 -1.888650e-01 -6.159850e-01 -1.057000e-03 -8.823000e-03  8.170000e-04
        52    pvqj         -22.312869          13.782164           -1.77184  2.141000e-03  2.528000e-03  1.871000e-03  7.090180e-01 -1.807780e-01  3.649000e-03  6.816150e-01  1.336400e-02 -1.775800e-02 -1.886100e-02
        53    pvqj         -21.113737          18.589144          -15.26689 -6.332000e-03  9.440000e-04  2.612000e-03  2.381790e-01  2.751220e-01  6.475740e-01  6.694970e-01  1.471400e-02  2.055800e-02  2.848600e-02
        54    pvqj            6.89516           5.168673         -10.868488  5.091000e-03  3.729000e-03  2.257000e-03  5.118630e-01  1.014970e-01 -8.073720e-01 -2.754000e-01  2.460000e-04 -1.011900e-02 -5.376000e-03
        55    pvqj           0.626084           6.888296          -2.893058  3.010000e-03 -1.330000e-04  4.923000e-03  5.452710e-01 -7.654030e-01  3.336430e-01 -7.429900e-02 -2.245900e-02  5.280000e-03 -2.853000e-03
        56    pvqj         -13.228427            0.53857          -12.07266 -1.619000e-03 -1.708000e-03 -5.040000e-03  8.566970e-01 -3.961500e-02  5.106790e-01  6.089800e-02 -1.220000e-02  3.742900e-02  6.067000e-03
        57    pvqj           12.94452           0.710539           3.723443  2.548000e-03 -2.930000e-03  3.502000e-03  3.331560e-01 -4.509370e-01  8.218900e-01  1.007930e-01  7.144000e-03 -4.653000e-03  7.567000e-03
        58    pvqj           -4.11679          -1.273132         -15.120415 -2.000000e-04  8.029000e-03  7.219000e-03  3.216080e-01 -6.105530e-01  7.033850e-01 -1.704160e-01  2.541000e-03 -4.350000e-04  2.389000e-02
        59    pvqj          -3.070044           1.489646         -18.325122  3.067000e-03  7.000000e-05 -3.897000e-03  2.674420e-01 -9.034130e-01 -3.329280e-01  3.844200e-02  4.182000e-03  6.111000e-03  3.321000e-03
        60    pvqj          20.982802           0.308671          -1.677016  4.765000e-03 -6.080000e-03  2.064000e-03  1.701670e-01  9.757850e-01  7.967400e-02  1.119800e-01 -6.343000e-03  1.146600e-02  6.953000e-03
        61    pvqj          -6.911183          -0.380799          13.072786  5.769000e-03 -9.660000e-04 -2.581000e-03  5.268390e-01 -8.344400e-01  1.444960e-01 -7.261000e-02  8.710000e-03 -6.097000e-03  1.596300e-02
        62    pvqj           2.304917           2.625771          -9.748008  3.115000e-03 -1.752000e-03 -2.821000e-03  7.616250e-01  1.847930e-01  6.011060e-01 -1.563680e-01 -6.211000e-03 -5.034000e-03  3.975600e-02
        63    pvqj          15.449209           7.968149          -5.490066 -2.995000e-03 -1.349000e-03  2.525000e-03  9.779630e-01 -3.675700e-02 -8.388000e-02  1.876200e-01 -3.487200e-02  4.647000e-03 -2.791100e-02
        64    pvqj         -15.002183          -3.878756          -2.670721  6.892000e-03 -1.000000e-05 -8.260000e-04  7.423700e-01  1.032960e-01  5.815350e-01  3.162820e-01 -7.481000e-03  1.422400e-02 -8.710000e-03
        65    pvqj          -5.612125           0.657246          -1.912991  6.561000e-03  2.867000e-03  4.707000e-03  8.539520e-01  1.263580e-01 -4.307970e-01 -2.630850e-01  3.149000e-03 -5.240000e-04  1.212900e-02
        66    pvqj          -8.994242          -8.556237           5.108083 -2.340000e-04  5.987000e-03 -2.334000e-03  1.367610e-01  7.093180e-01 -6.828410e-01 -1.090510e-01 -1.717000e-03  4.340000e-03 -2.779800e-02
        67    pvqj           6.037366           5.641092           2.011125  5.200000e-05 -1.821000e-03  7.390000e-04  7.565760e-01 -5.319110e-01 -1.661650e-01 -3.421280e-01 -1.797400e-02  9.630000e-04  3.572500e-02
        68    pvqj          -7.196285         -19.424507           -9.17687  1.620000e-03 -4.811000e-03 -4.100000e-05  3.926930e-01 -8.082630e-01 -4.275600e-01  9.847200e-02  2.880000e-03  1.110000e-04  6.287000e-03
        69    pvqj         -29.038349           7.875339           -5.53164  4.083000e-03  3.137000e-03 -4.676000e-03  5.518760e-01 -6.726260e-01  4.918040e-01  3.369500e-02  6.752000e-03 -1.668500e-02  7.596000e-03
        70    pvqj          10.026441          -8.677875          -4.895476 -2.924000e-03  2.269000e-03 -1.519000e-03  5.343000e-01  5.140260e-01  3.604310e-01 -5.660300e-01  3.892900e-02  3.640000e-03  2.336200e-02
        71    pvqj           2.848085          -9.946646         -10.299586 -1.034900e-02  7.710000e-04 -9.460000e-04  4.600250e-01  4.742160e-01  7.095340e-01  2.450690e-01 -1.298600e-02  2.325800e-02 -7.160000e-03
        72    pvqj         -20.903806         -21.243802         -31.430666 -3.000000e-03  2.462000e-03 -3.903000e-03  4.456180e-01  2.997300e-02  5.963300e-02  8.927320e-01  2.175100e-02  1.236600e-02  1.444000e-03
        73    pvqj           3.250776         -11.032064           6.562405  1.803000e-03 -4.730000e-04 -3.215000e-03  5.258340e-01 -4.444530e-01  6.937580e-01  2.113270e-01  1.088700e-02  1.381900e-02  4.596000e-03
        74    pvqj          12.008596          -1.057558          -2.178564 -1.854000e-03 -9.840000e-04  8.618000e-03  7.804120e-01  5.626710e-01 -2.196150e-01 -1.616420e-01  4.545000e-03 -2.622000e-03 -2.679000e-03
        75    pvqj          11.082001         -15.635873          -9.883531 -7.086000e-03  5.091000e-03  3.760000e-03  1.803320e-01  3.478700e-01 -8.692120e-01 -3.015570e-01  1.846900e-02  1.982200e-02 -1.202500e-02
        76    pvqj            8.04839          -4.197272         -18.960064 -1.923000e-03  4.422000e-03 -2.111000e-03  9.122060e-01 -3.781520e-01 -9.183500e-02 -1.282520e-01  3.379000e-03 -5.190000e-04 -1.781000e-02
        77    pvqj          -0.612933         -16.271857         -18.114695 -1.773000e-03 -4.780000e-04  2.417000e-03  2.201570e-01  4.408220e-01 -6.275700e-01 -6.027960e-01 -4.112000e-03 -1.498400e-02  1.012200e-02
        78    pvqj           4.570414           5.696401          -0.241099  2.493000e-03  3.299000e-03 -1.799000e-03  8.283600e-02  4.229430e-01  4.820480e-01  7.628150e-01  3.421000e-03  8.582000e-03  4.522000e-03
        79    pvqj           18.17841           4.129223         -14.525198  1.298000e-03  8.625000e-03  6.940000e-04  9.429770e-01 -1.008150e-01 -3.170180e-01 -1.141900e-02  2.279700e-02 -1.779700e-02 -2.413500e-02
        80    pvqj            4.76682           7.789991           3.745055  2.045000e-03 -4.840000e-04 -9.140000e-04  4.383160e-01 -1.180210e-01 -8.006600e-02  8.874340e-01 -1.530800e-02 -2.055800e-02  1.796000e-03
        81    pvqj           1.427165           4.374145           -3.29174  4.191000e-03  5.583000e-03  2.600000e-05  1.470490e-01  2.388370e-01 -7.978520e-01 -5.336340e-01 -2.328600e-02  2.531000e-03 -1.201300e-02
        82    pvqj          -0.328537          -4.933015           5.311011 -1.732000e-03  3.039000e-03  3.012000e-03  3.480500e-01 -2.608930e-01 -2.524710e-01 -8.643230e-01 -1.257000e-02  1.660200e-02 -2.249100e-02
        83    pvqj          -8.069239           25.69495           -1.82155 -5.500000e-04 -1.374000e-03 -4.988000e-03  5.947700e-02 -7.640000e-03 -8.417120e-01  5.365860e-01 -1.438400e-02  1.474500e-02 -1.456500e-02
        84    pvqj           2.646794          -9.290846           0.700822 -2.035000e-03 -2.840000e-03 -3.701000e-03  3.674330e-01 -7.155020e-01 -5.616380e-01  1.939400e-01 -6.030000e-03 -2.538200e-02 -2.407100e-02
        85    pvqj           1.950908          -2.268629          -1.889872 -5.270000e-03  4.600000e-04  9.034000e-03  3.413400e-01  7.184900e-01  5.856520e-01  1.557880e-01 -2.602400e-02  4.545000e-03  2.074000e-03
        86    pvqj          -0.431324          -0.337065            1.98756 -6.281000e-03 -1.233000e-03  9.865000e-03  4.723600e-02  8.388650e-01  2.324130e-01 -4.899580e-01  1.769600e-02  1.681900e-02 -5.559000e-03
        87    pvqj          -3.662588          -7.726389         -11.222168  4.818000e-03 -7.550000e-04  5.920000e-03  6.474700e-01  2.710400e-01 -6.121780e-01  3.640850e-01 -1.040500e-02  2.360800e-02  6.957000e-03
        88    pvqj          -3.790538          -18.68774           -3.97656 -9.700000e-04  2.062000e-03 -4.264000e-03  5.356440e-01 -2.338300e-02  1.637230e-01  8.280900e-01 -2.532000e-03 -3.842000e-03 -1.071000e-02
        89    pvqj          -0.084311          -6.943597           9.029537  2.390000e-04 -6.350000e-04 -1.742000e-03  2.344400e-01  7.161680e-01  6.511060e-01  9.057200e-02  6.030000e-04 -4.243000e-03  1.868700e-02
        90    pvqj          -4.343477         -25.355831           3.081134 -1.106000e-03  7.416000e-03 -2.182000e-03  9.256570e-01  1.144430e-01  2.294450e-01  2.782380e-01  1.050800e-02  4.103000e-03  1.957800e-02
        91    pvqj           8.217267         -19.328237           10.98604 -9.060000e-04 -1.698000e-03  2.988000e-03  2.907890e-01  3.846540e-01 -1.236420e-01  8.672920e-01  2.851500e-02 -1.003500e-02 -3.377000e-03
        92    pvqj           8.026641          -12.52721         -15.439432  3.650000e-03 -7.332000e-03  5.251000e-03  1.046160e-01  8.701390e-01 -2.342520e-01  4.207600e-01  1.967800e-02  1.790500e-02  4.549000e-03
        93    pvqj           9.061467         -14.082784          -9.226784 -2.072000e-03  6.056000e-03 -5.088000e-03  3.335020e-01 -4.616600e-01 -3.700800e-01  7.339530e-01 -1.566000e-03  1.015900e-02  2.309100e-02
        94    pvqj          15.954611           1.310795          -8.884517  7.100000e-04  3.240000e-04  6.664000e-03  4.142750e-01  1.265440e-01 -4.006830e-01 -8.073510e-01  9.202000e-03 -1.722700e-02 -6.040000e-03
        95    pvqj           3.456635          -6.737982          -5.615204 -8.880000e-04  1.996000e-03 -5.337000e-03  1.040920e-01 -7.573040e-01  5.314510e-01  3.649860e-01 -9.210000e-04 -1.255400e-02 -2.602600e-02
        96    pvqj          -8.644311          -2.759273           10.33079 -1.098000e-03 -8.080000e-04 -7.070000e-04  5.790790e-01 -9.514200e-02 -7.122210e-01 -3.851700e-01 -1.147000e-03  2.264200e-02 -2.042000e-02
        97    pvqj         -11.643363          13.829245          -6.206523 -6.681000e-03  6.860000e-04 -1.901000e-03  8.707270e-01 -2.877920e-01 -7.575700e-02  3.914980e-01  3.551600e-02 -1.605900e-02 -1.316900e-02
        98    pvqj         -15.197343           0.563861           3.674983  1.981000e-03 -1.310000e-03  4.178000e-03  1.937230e-01  4.672270e-01 -8.434190e-01  1.811470e-01 -1.069400e-02  2.722100e-02 -1.583200e-02
        99    pvqj         -32.151934          -8.945289          12.237518 -3.097000e-03 -5.397000e-03 -2.625000e-03  3.716400e-02  4.542500e-02  2.754200e-01  9.595310e-01  2.198000e-02  2.383400e-02  1.268100e-02
       100    pvqj         -10.812884           7.939733          -2.577728 -6.230000e-03 -2.491000e-03  1.604000e-03  7.354200e-02  9.418200e-02  9.012160e-01 -4.165700e-01  3.115300e-02 -1.482200e-02 -1.436900e-02
       101    pvqj         -13.798349           7.471964          -9.266083 -6.411000e-03  1.660000e-04  2.766000e-03  8.162820e-01 -1.859950e-01 -5.467950e-01  1.028400e-02  1.350000e-03 -6.496000e-03 -2.210800e-02
       102    pvqj          -4.168278           -9.69874         -15.578805  2.049000e-03 -4.097000e-03 -1.992000e-03  7.896760e-01  3.663900e-02 -6.098290e-01 -5.637300e-02  1.163000e-02 -4.620000e-03 -3.381000e-03
       103    pvqj            1.09257           2.856846           5.158008  1.182000e-03 -5.640000e-04  1.059000e-03  8.068070e-01  1.737690e-01 -5.036810e-01  2.552900e-01  3.275800e-02 -4.100000e-03 -3.077500e-02
       104    pvqj         -21.252588          12.395513           6.505192 -2.115000e-03  7.060000e-04 -7.810000e-04  6.907800e-02 -4.265810e-01  4.101850e-01  8.031220e-01  4.259200e-02  1.192000e-03  1.622000e-02
       105    pvqj          -3.564877          -0.275485         -12.804224  1.470000e-03  6.037000e-03 -2.635000e-03  5.183130e-01  6.817150e-01  4.861270e-01 -1.740560e-01  1.751500e-02 -6.877000e-03 -8.241000e-03
       106    pvqj           1.967486           4.485162          -0.023368  2.839000e-03 -5.670000e-04 -3.705000e-03  3.678290e-01  9.102800e-02  3.693290e-01  8.485350e-01 -1.894000e-02 -7.298000e-03  2.384300e-02
       107    pvqj         -11.387571          -1.136984          -3.876411 -3.295000e-03  5.431000e-03  5.010000e-04  8.515250e-01  3.984100e-01 -1.740100e-02  3.403990e-01 -2.412500e-02 -2.060000e-03  5.158000e-03
       108    pvqj            2.02278           0.764437         -17.771391 -4.140000e-04 -3.830000e-03  2.834000e-03  7.137400e-02 -7.108980e-01  6.111800e-02  6.969890e-01 -1.550000e-02 -4.853000e-03 -1.948200e-02
       109    pvqj          13.986543           2.166116          -5.858626 -6.816000e-03 -1.522000e-03 -3.600000e-05  3.899100e-02  4.568570e-01  4.274880e-01  7.791120e-01  1.816100e-02 -1.056200e-02  1.393100e-02
       110    pvqj          10.848491           8.101407           3.769637  4.140000e-04 -2.558000e-03 -9.370000e-04  1.443650e-01  3.693160e-01  4.601500e-01  7.943720e-01  8.769000e-03  9.860000e-04 -7.532000e-03
       111    pvqj          -1.070399          13.976391          20.313768 -3.993000e-03  3.135000e-03 -6.990000e-04  4.392600e-01 -1.089330e-01  6.304510e-01  6.306470e-01  1.213900e-02 -1.226900e-02  1.860300e-02
       112    pvqj         -15.829223           8.359225         -22.802863  4.117000e-03 -2.312000e-03  3.220000e-04  7.346910e-01  4.352480e-01  5.099660e-01  1.035540e-01 -2.209400e-02 -8.924000e-03  1.925700e-02
       113    pvqj         -12.875699          11.127919         -12.090911  1.752000e-03  3.003000e-03  5.987000e-03  4.642300e-01 -4.035060e-01 -3.779610e-01 -6.919670e-01 -1.725000e-03 -5.245000e-03 -1.927000e-03
       114    pvqj          -7.167986           4.627902         -13.689134 -2.221000e-03 -5.500000e-05  2.351000e-03  1.604060e-01  4.781160e-01  6.704430e-01 -5.442250e-01  7.969000e-03  4.411000e-03 -8.116000e-03
       115    pvqj          -7.299146          -3.649246         -13.742705  2.212000e-03 -4.655000e-03 -1.861000e-03  4.399510e-01  7.753740e-01 -2.066740e-01  4.031420e-01  2.556600e-02 -1.450300e-02  1.085600e-02
       116    pvqj          -2.603176           2.303835         -12.752437 -2.166000e-03 -8.243000e-03 -4.520000e-03  2.898010e-01  1.714650e-01 -3.417530e-01  8.773940e-01 -1.364500e-02  5.977000e-03 -1.457000e-03
       117    pvqj          -6.280334           8.601284           8.216148  3.724000e-03  3.107000e-03  2.832000e-03  4.125230e-01  5.941270e-01 -7.473400e-02  6.864780e-01 -2.647300e-02  1.217100e-02  9.184000e-03
       118    pvqj          -4.724397          -4.161145         -11.436638  4.460000e-03 -1.048000e-03  6.974000e-03  8.694810e-01  3.949700e-02 -4.896670e-01 -5.167300e-02 -8.691000e-03  2.624600e-02 -2.532300e-02
       119    pvqj           0.888923          12.531119          12.566258  6.950000e-04  1.325000e-03  2.453000e-03  5.905300e-02 -7.566460e-01 -3.536250e-01  5.467620e-01  1.543800e-02 -3.176000e-03  1.418400e-02
       120    pvqj            0.17521          10.385625           5.206791 -4.226000e-03  9.290000e-04  5.460000e-03  2.456870e-01 -6.597950e-01 -1.373560e-01  6.967370e-01  1.963700e-02  3.609000e-03 -5.405000e-03
       121    pvqj           7.955901           7.447425          -7.230519  1.540000e-03 -1.479000e-03  1.519000e-03  1.327000e-01 -7.249210e-01  6.695930e-01  9.233400e-02  2.354700e-02 -1.449600e-02 -1.330000e-04
       122    pvqj           5.689492           1.842308          -2.795037 -2.754000e-03  2.368000e-03  1.612000e-03  7.117790e-01 -5.673800e-02 -6.996440e-01 -2.547100e-02 -4.235000e-03  3.163000e-03  1.320500e-02
       123    pvqj          -7.444545           12.84183          -5.191114 -5.442000e-03 -3.049000e-03 -2.605000e-03  1.697520e-01 -3.408040e-01 -9.125000e-01  1.495980e-01  2.746800e-02 -2.892000e-03 -6.909000e-03
       124    pvqj          -1.180949          -4.089214          -8.381794 -5.094000e-03 -3.507000e-03 -6.852000e-03  3.101570e-01  6.781630e-01 -6.021690e-01  2.851130e-01  2.329900e-02 -5.277000e-03 -1.337000e-02
       125    pvqj          -1.665558           2.234885          -2.947101 -2.734000e-03 -1.755000e-03  4.907000e-03  3.143760e-01 -1.594420e-01  7.112730e-01 -6.081420e-01 -2.241500e-02 -1.937000e-03  9.550000e-03
       126    pvqj           1.006562          -4.607905         -16.697726 -1.946000e-03  1.951000e-03 -7.091000e-03  3.811260e-01  2.619830e-01  5.271600e-01 -7.128890e-01 -2.422400e-02 -1.064400e-02  4.114500e-02
       127    pvqj          10.811144           8.574592          -0.633291  2.565000e-03  1.562000e-03 -1.000000e-04  8.565200e-02  6.358660e-01 -7.651640e-01  5.349600e-02  3.991400e-02  5.357000e-03 -2.690000e-04
       128    pvqj         -26.542218           -2.26623           8.365418  4.739000e-03 -1.659000e-03  1.298000e-03  6.039480e-01  6.859500e-01 -3.982150e-01 -7.838900e-02  4.443400e-02  1.813000e-03 -7.900000e-03
       129    pvqj           4.524662         -13.484262          -4.756375  1.031000e-03 -1.122000e-03 -5.904000e-03  8.378830e-01 -5.655600e-02  4.143690e-01 -3.507870e-01 -1.232000e-02  5.427000e-03  7.532000e-03
       130    pvqj          -4.198346          14.747108          13.963687 -6.737000e-03  1.800000e-03 -2.958000e-03  1.131220e-01 -9.828500e-01 -8.763000e-02 -1.163230e-01  5.308000e-03 -4.894000e-03 -1.142000e-03
       131    pvqj          -5.573654           6.526305           9.794542 -2.025000e-03 -1.335000e-03 -1.591000e-03  6.489750e-01  5.336960e-01 -5.389420e-01  5.950600e-02 -2.755000e-03  6.496000e-03 -1.808800e-02
       132    pvqj           2.449243         -26.741983         -16.819028 -2.529000e-03 -6.840000e-04 -8.720000e-04  7.948470e-01  4.747070e-01  9.736500e-02 -3.652280e-01  6.380000e-04  6.526000e-03 -1.211100e-02