<OpenMD version=2>
  <MetaData> 

molecule{ 
  name = "Pt_FQ";

  atom[0]{
    type="Pt_FQ";
    position( 0.0, 0.0, 0.0 );
  }
}

component{ 
  type = "Pt_FQ";
  nMol = 2160;
}

flucQ {
  propagator = "Langevin";
  targetTemp = 1;
  dragCoefficient = 0.1;
}

forceField="DR-EAM";
outputFluctuatingCharges = true;
outputElectricField = true;
outputDensity = true;
ensemble = NVE; 
dt = 0.1;
runTime = 1e4;
sampleTime =100;
statusTime = 10;

cutoffMethod = "shifted_force";
cutoffRadius = 13;
electrostaticScreeningMethod = "DAMPED";
statFileFormat = "TIME|TOTAL_ENERGY|POTENTIAL_ENERGY|KINETIC_ENERGY|TEMPERATURE|PRESSURE|VOLUME|CONSERVED_QUANTITY|SYSTEM_DIPOLE|ELECTRONIC_TEMPERATURE";
dampingAlpha = 0.14;
useSurfaceTerm = "true";
targetTemp = 100;
tauThermostat = 1000;
tauBarostat = 1e6;
uniformField = (0,0,1e-2);
tempSet = "false";
useInitialTime = "false";
useInitialExtendedSystemState = "false";

  </MetaData>
  <Snapshot>
    <FrameData>
      Time: 0 
      Hmat: {{ 28.805999, 0.000000, 0.000000 }, { 0.000000, 27.718586, 0.000000 }, { 0.000000, 0.000000, 122.213505 }}
      Thermostat: 0.0, 0.0 
      Barostat: {{ 0, 0, 0 }, { 0, 0, 0 }, { 0, 0, 0 }} 
    </FrameData>
    <StuntDoubles> 
	0	pv	-12.402583	-11.780399	-19.237311	0.0	0.0	0.0
	1	pv	-10.002083	-13.166328	-19.237311	0.0	0.0	0.0
	2	pv	-13.202750	-13.166328	-16.974098	0.0	0.0	0.0
	3	pv	-12.402583	-9.008540	-19.237311	0.0	0.0	0.0
	4	pv	-12.402583	-6.236682	-19.237311	0.0	0.0	0.0
	5	pv	-10.002083	-7.622611	-19.237311	0.0	0.0	0.0
	6	pv	-13.202750	-7.622611	-16.974098	0.0	0.0	0.0
	7	pv	-7.601583	-11.780399	-19.237311	0.0	0.0	0.0
	8	pv	-7.601583	-9.008540	-19.237311	0.0	0.0	0.0
	9	pv	-5.201083	-10.394470	-19.237311	0.0	0.0	0.0
	10	pv	-10.002083	-10.394470	-19.237311	0.0	0.0	0.0
	11	pv	-10.802250	-11.780399	-16.974098	0.0	0.0	0.0
	12	pv	-10.802250	-9.008540	-16.974098	0.0	0.0	0.0
	13	pv	-8.401750	-10.394470	-16.974098	0.0	0.0	0.0
	14	pv	-13.202750	-10.394470	-16.974098	0.0	0.0	0.0
	15	pv	-14.002916	-11.780399	-14.710885	0.0	0.0	0.0
	16	pv	-14.002916	-9.008540	-14.710885	0.0	0.0	0.0
	17	pv	-11.602416	-10.394470	-14.710885	0.0	0.0	0.0
	18	pv	-2.800583	-11.780399	-19.237311	0.0	0.0	0.0
	19	pv	-0.400083	-13.166328	-19.237311	0.0	0.0	0.0
	20	pv	-5.201083	-13.166328	-19.237311	0.0	0.0	0.0
	21	pv	-6.001250	-11.780399	-16.974098	0.0	0.0	0.0
	22	pv	-3.600750	-13.166328	-16.974098	0.0	0.0	0.0
	23	pv	-8.401750	-13.166328	-16.974098	0.0	0.0	0.0
	24	pv	-9.201916	-11.780399	-14.710885	0.0	0.0	0.0
	25	pv	-6.801417	-13.166328	-14.710885	0.0	0.0	0.0
	26	pv	-11.602416	-13.166328	-14.710885	0.0	0.0	0.0
	27	pv	-12.402583	-11.780399	-12.447672	0.0	0.0	0.0
	28	pv	-10.002083	-13.166328	-12.447672	0.0	0.0	0.0
	29	pv	-13.202750	-13.166328	-10.184459	0.0	0.0	0.0
	30	pv	-12.402583	-3.464823	-19.237311	0.0	0.0	0.0
	31	pv	-12.402583	-0.692965	-19.237311	0.0	0.0	0.0
	32	pv	-10.002083	-2.078894	-19.237311	0.0	0.0	0.0
	33	pv	-13.202750	-2.078894	-16.974098	0.0	0.0	0.0
	34	pv	-7.601583	-6.236682	-19.237311	0.0	0.0	0.0
	35	pv	-7.601583	-3.464823	-19.237311	0.0	0.0	0.0
	36	pv	-5.201083	-4.850753	-19.237311	0.0	0.0	0.0
	37	pv	-10.002083	-4.850753	-19.237311	0.0	0.0	0.0
	38	pv	-10.802250	-6.236682	-16.974098	0.0	0.0	0.0
	39	pv	-10.802250	-3.464823	-16.974098	0.0	0.0	0.0
	40	pv	-8.401750	-4.850753	-16.974098	0.0	0.0	0.0
	41	pv	-13.202750	-4.850753	-16.974098	0.0	0.0	0.0
	42	pv	-14.002916	-6.236682	-14.710885	0.0	0.0	0.0
	43	pv	-14.002916	-3.464823	-14.710885	0.0	0.0	0.0
	44	pv	-11.602416	-4.850753	-14.710885	0.0	0.0	0.0
	45	pv	-2.800583	-9.008540	-19.237311	0.0	0.0	0.0
	46	pv	-2.800583	-6.236682	-19.237311	0.0	0.0	0.0
	47	pv	-0.400083	-7.622611	-19.237311	0.0	0.0	0.0
	48	pv	-5.201083	-7.622611	-19.237311	0.0	0.0	0.0
	49	pv	-6.001250	-9.008540	-16.974098	0.0	0.0	0.0
	50	pv	-6.001250	-6.236682	-16.974098	0.0	0.0	0.0
	51	pv	-3.600750	-7.622611	-16.974098	0.0	0.0	0.0
	52	pv	-8.401750	-7.622611	-16.974098	0.0	0.0	0.0
	53	pv	-9.201916	-9.008540	-14.710885	0.0	0.0	0.0
	54	pv	-9.201916	-6.236682	-14.710885	0.0	0.0	0.0
	55	pv	-6.801417	-7.622611	-14.710885	0.0	0.0	0.0
	56	pv	-11.602416	-7.622611	-14.710885	0.0	0.0	0.0
	57	pv	-12.402583	-9.008540	-12.447672	0.0	0.0	0.0
	58	pv	-12.402583	-6.236682	-12.447672	0.0	0.0	0.0
	59	pv	-10.002083	-7.622611	-12.447672	0.0	0.0	0.0
	60	pv	-13.202750	-7.622611	-10.184459	0.0	0.0	0.0
	61	pv	2.000417	-11.780399	-19.237311	0.0	0.0	0.0
	62	pv	2.000417	-9.008540	-19.237311	0.0	0.0	0.0
	63	pv	4.400917	-10.394470	-19.237311	0.0	0.0	0.0
	64	pv	-0.400083	-10.394470	-19.237311	0.0	0.0	0.0
	65	pv	-1.200250	-11.780399	-16.974098	0.0	0.0	0.0
	66	pv	-1.200250	-9.008540	-16.974098	0.0	0.0	0.0
	67	pv	1.200250	-10.394470	-16.974098	0.0	0.0	0.0
	68	pv	-3.600750	-10.394470	-16.974098	0.0	0.0	0.0
	69	pv	-4.400917	-11.780399	-14.710885	0.0	0.0	0.0
	70	pv	-4.400917	-9.008540	-14.710885	0.0	0.0	0.0
	71	pv	-2.000417	-10.394470	-14.710885	0.0	0.0	0.0
	72	pv	-6.801417	-10.394470	-14.710885	0.0	0.0	0.0
	73	pv	-7.601583	-11.780399	-12.447672	0.0	0.0	0.0
	74	pv	-7.601583	-9.008540	-12.447672	0.0	0.0	0.0
	75	pv	-5.201083	-10.394470	-12.447672	0.0	0.0	0.0
	76	pv	-10.002083	-10.394470	-12.447672	0.0	0.0	0.0
	77	pv	-10.802250	-11.780399	-10.184459	0.0	0.0	0.0
	78	pv	-10.802250	-9.008540	-10.184459	0.0	0.0	0.0
	79	pv	-8.401750	-10.394470	-10.184459	0.0	0.0	0.0
	80	pv	-13.202750	-10.394470	-10.184459	0.0	0.0	0.0
	81	pv	-14.002916	-11.780399	-7.921246	0.0	0.0	0.0
	82	pv	-14.002916	-9.008540	-7.921246	0.0	0.0	0.0
	83	pv	-11.602416	-10.394470	-7.921246	0.0	0.0	0.0
	84	pv	6.801417	-11.780399	-19.237311	0.0	0.0	0.0
	85	pv	9.201916	-13.166328	-19.237311	0.0	0.0	0.0
	86	pv	4.400917	-13.166328	-19.237311	0.0	0.0	0.0
	87	pv	3.600750	-11.780399	-16.974098	0.0	0.0	0.0
	88	pv	6.001250	-13.166328	-16.974098	0.0	0.0	0.0
	89	pv	1.200250	-13.166328	-16.974098	0.0	0.0	0.0
	90	pv	0.400083	-11.780399	-14.710885	0.0	0.0	0.0
	91	pv	2.800583	-13.166328	-14.710885	0.0	0.0	0.0
	92	pv	-2.000417	-13.166328	-14.710885	0.0	0.0	0.0
	93	pv	-2.800583	-11.780399	-12.447672	0.0	0.0	0.0
	94	pv	-0.400083	-13.166328	-12.447672	0.0	0.0	0.0
	95	pv	-5.201083	-13.166328	-12.447672	0.0	0.0	0.0
	96	pv	-6.001250	-11.780399	-10.184459	0.0	0.0	0.0
	97	pv	-3.600750	-13.166328	-10.184459	0.0	0.0	0.0
	98	pv	-8.401750	-13.166328	-10.184459	0.0	0.0	0.0
	99	pv	-9.201916	-11.780399	-7.921246	0.0	0.0	0.0
	100	pv	-6.801417	-13.166328	-7.921246	0.0	0.0	0.0
	101	pv	-11.602416	-13.166328	-7.921246	0.0	0.0	0.0
	102	pv	-12.402583	-11.780399	-5.658033	0.0	0.0	0.0
	103	pv	-10.002083	-13.166328	-5.658033	0.0	0.0	0.0
	104	pv	-13.202750	-13.166328	-3.394820	0.0	0.0	0.0
	105	pv	-12.402583	2.078894	-19.237311	0.0	0.0	0.0
	106	pv	-12.402583	4.850753	-19.237311	0.0	0.0	0.0
	107	pv	-10.002083	3.464823	-19.237311	0.0	0.0	0.0
	108	pv	-13.202750	3.464823	-16.974098	0.0	0.0	0.0
	109	pv	-7.601583	-0.692965	-19.237311	0.0	0.0	0.0
	110	pv	-7.601583	2.078894	-19.237311	0.0	0.0	0.0
	111	pv	-5.201083	0.692965	-19.237311	0.0	0.0	0.0
	112	pv	-10.002083	0.692965	-19.237311	0.0	0.0	0.0
	113	pv	-10.802250	-0.692965	-16.974098	0.0	0.0	0.0
	114	pv	-10.802250	2.078894	-16.974098	0.0	0.0	0.0
	115	pv	-8.401750	0.692965	-16.974098	0.0	0.0	0.0
	116	pv	-13.202750	0.692965	-16.974098	0.0	0.0	0.0
	117	pv	-14.002916	-0.692965	-14.710885	0.0	0.0	0.0
	118	pv	-14.002916	2.078894	-14.710885	0.0	0.0	0.0
	119	pv	-11.602416	0.692965	-14.710885	0.0	0.0	0.0
	120	pv	-2.800583	-3.464823	-19.237311	0.0	0.0	0.0
	121	pv	-2.800583	-0.692965	-19.237311	0.0	0.0	0.0
	122	pv	-0.400083	-2.078894	-19.237311	0.0	0.0	0.0
	123	pv	-5.201083	-2.078894	-19.237311	0.0	0.0	0.0
	124	pv	-6.001250	-3.464823	-16.974098	0.0	0.0	0.0
	125	pv	-6.001250	-0.692965	-16.974098	0.0	0.0	0.0
	126	pv	-3.600750	-2.078894	-16.974098	0.0	0.0	0.0
	127	pv	-8.401750	-2.078894	-16.974098	0.0	0.0	0.0
	128	pv	-9.201916	-3.464823	-14.710885	0.0	0.0	0.0
	129	pv	-9.201916	-0.692965	-14.710885	0.0	0.0	0.0
	130	pv	-6.801417	-2.078894	-14.710885	0.0	0.0	0.0
	131	pv	-11.602416	-2.078894	-14.710885	0.0	0.0	0.0
	132	pv	-12.402583	-3.464823	-12.447672	0.0	0.0	0.0
	133	pv	-12.402583	-0.692965	-12.447672	0.0	0.0	0.0
	134	pv	-10.002083	-2.078894	-12.447672	0.0	0.0	0.0
	135	pv	-13.202750	-2.078894	-10.184459	0.0	0.0	0.0
	136	pv	2.000417	-6.236682	-19.237311	0.0	0.0	0.0
	137	pv	2.000417	-3.464823	-19.237311	0.0	0.0	0.0
	138	pv	4.400917	-4.850753	-19.237311	0.0	0.0	0.0
	139	pv	-0.400083	-4.850753	-19.237311	0.0	0.0	0.0
	140	pv	-1.200250	-6.236682	-16.974098	0.0	0.0	0.0
	141	pv	-1.200250	-3.464823	-16.974098	0.0	0.0	0.0
	142	pv	1.200250	-4.850753	-16.974098	0.0	0.0	0.0
	143	pv	-3.600750	-4.850753	-16.974098	0.0	0.0	0.0
	144	pv	-4.400917	-6.236682	-14.710885	0.0	0.0	0.0
	145	pv	-4.400917	-3.464823	-14.710885	0.0	0.0	0.0
	146	pv	-2.000417	-4.850753	-14.710885	0.0	0.0	0.0
	147	pv	-6.801417	-4.850753	-14.710885	0.0	0.0	0.0
	148	pv	-7.601583	-6.236682	-12.447672	0.0	0.0	0.0
	149	pv	-7.601583	-3.464823	-12.447672	0.0	0.0	0.0
	150	pv	-5.201083	-4.850753	-12.447672	0.0	0.0	0.0
	151	pv	-10.002083	-4.850753	-12.447672	0.0	0.0	0.0
	152	pv	-10.802250	-6.236682	-10.184459	0.0	0.0	0.0
	153	pv	-10.802250	-3.464823	-10.184459	0.0	0.0	0.0
	154	pv	-8.401750	-4.850753	-10.184459	0.0	0.0	0.0
	155	pv	-13.202750	-4.850753	-10.184459	0.0	0.0	0.0
	156	pv	-14.002916	-6.236682	-7.921246	0.0	0.0	0.0
	157	pv	-14.002916	-3.464823	-7.921246	0.0	0.0	0.0
	158	pv	-11.602416	-4.850753	-7.921246	0.0	0.0	0.0
	159	pv	6.801417	-9.008540	-19.237311	0.0	0.0	0.0
	160	pv	6.801417	-6.236682	-19.237311	0.0	0.0	0.0
	161	pv	9.201916	-7.622611	-19.237311	0.0	0.0	0.0
	162	pv	4.400917	-7.622611	-19.237311	0.0	0.0	0.0
	163	pv	3.600750	-9.008540	-16.974098	0.0	0.0	0.0
	164	pv	3.600750	-6.236682	-16.974098	0.0	0.0	0.0
	165	pv	6.001250	-7.622611	-16.974098	0.0	0.0	0.0
	166	pv	1.200250	-7.622611	-16.974098	0.0	0.0	0.0
	167	pv	0.400083	-9.008540	-14.710885	0.0	0.0	0.0
	168	pv	0.400083	-6.236682	-14.710885	0.0	0.0	0.0
	169	pv	2.800583	-7.622611	-14.710885	0.0	0.0	0.0
	170	pv	-2.000417	-7.622611	-14.710885	0.0	0.0	0.0
	171	pv	-2.800583	-9.008540	-12.447672	0.0	0.0	0.0
	172	pv	-2.800583	-6.236682	-12.447672	0.0	0.0	0.0
	173	pv	-0.400083	-7.622611	-12.447672	0.0	0.0	0.0
	174	pv	-5.201083	-7.622611	-12.447672	0.0	0.0	0.0
	175	pv	-6.001250	-9.008540	-10.184459	0.0	0.0	0.0
	176	pv	-6.001250	-6.236682	-10.184459	0.0	0.0	0.0
	177	pv	-3.600750	-7.622611	-10.184459	0.0	0.0	0.0
	178	pv	-8.401750	-7.622611	-10.184459	0.0	0.0	0.0
	179	pv	-9.201916	-9.008540	-7.921246	0.0	0.0	0.0
	180	pv	-9.201916	-6.236682	-7.921246	0.0	0.0	0.0
	181	pv	-6.801417	-7.622611	-7.921246	0.0	0.0	0.0
	182	pv	-11.602416	-7.622611	-7.921246	0.0	0.0	0.0
	183	pv	-12.402583	-9.008540	-5.658033	0.0	0.0	0.0
	184	pv	-12.402583	-6.236682	-5.658033	0.0	0.0	0.0
	185	pv	-10.002083	-7.622611	-5.658033	0.0	0.0	0.0
	186	pv	-13.202750	-7.622611	-3.394820	0.0	0.0	0.0
	187	pv	11.602416	-11.780399	-19.237311	0.0	0.0	0.0
	188	pv	11.602416	-9.008540	-19.237311	0.0	0.0	0.0
	189	pv	14.002916	-10.394470	-19.237311	0.0	0.0	0.0
	190	pv	9.201916	-10.394470	-19.237311	0.0	0.0	0.0
	191	pv	8.401750	-11.780399	-16.974098	0.0	0.0	0.0
	192	pv	8.401750	-9.008540	-16.974098	0.0	0.0	0.0
	193	pv	10.802250	-10.394470	-16.974098	0.0	0.0	0.0
	194	pv	6.001250	-10.394470	-16.974098	0.0	0.0	0.0
	195	pv	5.201083	-11.780399	-14.710885	0.0	0.0	0.0
	196	pv	5.201083	-9.008540	-14.710885	0.0	0.0	0.0
	197	pv	7.601583	-10.394470	-14.710885	0.0	0.0	0.0
	198	pv	2.800583	-10.394470	-14.710885	0.0	0.0	0.0
	199	pv	2.000417	-11.780399	-12.447672	0.0	0.0	0.0
	200	pv	2.000417	-9.008540	-12.447672	0.0	0.0	0.0
	201	pv	4.400917	-10.394470	-12.447672	0.0	0.0	0.0
	202	pv	-0.400083	-10.394470	-12.447672	0.0	0.0	0.0
	203	pv	-1.200250	-11.780399	-10.184459	0.0	0.0	0.0
	204	pv	-1.200250	-9.008540	-10.184459	0.0	0.0	0.0
	205	pv	1.200250	-10.394470	-10.184459	0.0	0.0	0.0
	206	pv	-3.600750	-10.394470	-10.184459	0.0	0.0	0.0
	207	pv	-4.400917	-11.780399	-7.921246	0.0	0.0	0.0
	208	pv	-4.400917	-9.008540	-7.921246	0.0	0.0	0.0
	209	pv	-2.000417	-10.394470	-7.921246	0.0	0.0	0.0
	210	pv	-6.801417	-10.394470	-7.921246	0.0	0.0	0.0
	211	pv	-7.601583	-11.780399	-5.658033	0.0	0.0	0.0
	212	pv	-7.601583	-9.008540	-5.658033	0.0	0.0	0.0
	213	pv	-5.201083	-10.394470	-5.658033	0.0	0.0	0.0
	214	pv	-10.002083	-10.394470	-5.658033	0.0	0.0	0.0
	215	pv	-10.802250	-11.780399	-3.394820	0.0	0.0	0.0
	216	pv	-10.802250	-9.008540	-3.394820	0.0	0.0	0.0
	217	pv	-8.401750	-10.394470	-3.394820	0.0	0.0	0.0
	218	pv	-13.202750	-10.394470	-3.394820	0.0	0.0	0.0
	219	pv	-14.002916	-11.780399	-1.131607	0.0	0.0	0.0
	220	pv	-14.002916	-9.008540	-1.131607	0.0	0.0	0.0
	221	pv	-11.602416	-10.394470	-1.131607	0.0	0.0	0.0
	222	pv	14.002916	-13.166328	-19.237311	0.0	0.0	0.0
	223	pv	13.202750	-11.780399	-16.974098	0.0	0.0	0.0
	224	pv	10.802250	-13.166328	-16.974098	0.0	0.0	0.0
	225	pv	10.002083	-11.780399	-14.710885	0.0	0.0	0.0
	226	pv	12.402583	-13.166328	-14.710885	0.0	0.0	0.0
	227	pv	7.601583	-13.166328	-14.710885	0.0	0.0	0.0
	228	pv	6.801417	-11.780399	-12.447672	0.0	0.0	0.0
	229	pv	9.201916	-13.166328	-12.447672	0.0	0.0	0.0
	230	pv	4.400917	-13.166328	-12.447672	0.0	0.0	0.0
	231	pv	3.600750	-11.780399	-10.184459	0.0	0.0	0.0
	232	pv	6.001250	-13.166328	-10.184459	0.0	0.0	0.0
	233	pv	1.200250	-13.166328	-10.184459	0.0	0.0	0.0
	234	pv	0.400083	-11.780399	-7.921246	0.0	0.0	0.0
	235	pv	2.800583	-13.166328	-7.921246	0.0	0.0	0.0
	236	pv	-2.000417	-13.166328	-7.921246	0.0	0.0	0.0
	237	pv	-2.800583	-11.780399	-5.658033	0.0	0.0	0.0
	238	pv	-0.400083	-13.166328	-5.658033	0.0	0.0	0.0
	239	pv	-5.201083	-13.166328	-5.658033	0.0	0.0	0.0
	240	pv	-6.001250	-11.780399	-3.394820	0.0	0.0	0.0
	241	pv	-3.600750	-13.166328	-3.394820	0.0	0.0	0.0
	242	pv	-8.401750	-13.166328	-3.394820	0.0	0.0	0.0
	243	pv	-9.201916	-11.780399	-1.131607	0.0	0.0	0.0
	244	pv	-6.801417	-13.166328	-1.131607	0.0	0.0	0.0
	245	pv	-11.602416	-13.166328	-1.131607	0.0	0.0	0.0
	246	pv	-12.402583	-11.780399	1.131607	0.0	0.0	0.0
	247	pv	-10.002083	-13.166328	1.131607	0.0	0.0	0.0
	248	pv	-13.202750	-13.166328	3.394820	0.0	0.0	0.0
	249	pv	-12.402583	7.622611	-19.237311	0.0	0.0	0.0
	250	pv	-12.402583	10.394470	-19.237311	0.0	0.0	0.0
	251	pv	-10.002083	9.008540	-19.237311	0.0	0.0	0.0
	252	pv	-13.202750	9.008540	-16.974098	0.0	0.0	0.0
	253	pv	-7.601583	4.850753	-19.237311	0.0	0.0	0.0
	254	pv	-7.601583	7.622611	-19.237311	0.0	0.0	0.0
	255	pv	-5.201083	6.236682	-19.237311	0.0	0.0	0.0
	256	pv	-10.002083	6.236682	-19.237311	0.0	0.0	0.0
	257	pv	-10.802250	4.850753	-16.974098	0.0	0.0	0.0
	258	pv	-10.802250	7.622611	-16.974098	0.0	0.0	0.0
	259	pv	-8.401750	6.236682	-16.974098	0.0	0.0	0.0
	260	pv	-13.202750	6.236682	-16.974098	0.0	0.0	0.0
	261	pv	-14.002916	4.850753	-14.710885	0.0	0.0	0.0
	262	pv	-14.002916	7.622611	-14.710885	0.0	0.0	0.0
	263	pv	-11.602416	6.236682	-14.710885	0.0	0.0	0.0
	264	pv	-2.800583	2.078894	-19.237311	0.0	0.0	0.0
	265	pv	-2.800583	4.850753	-19.237311	0.0	0.0	0.0
	266	pv	-0.400083	3.464823	-19.237311	0.0	0.0	0.0
	267	pv	-5.201083	3.464823	-19.237311	0.0	0.0	0.0
	268	pv	-6.001250	2.078894	-16.974098	0.0	0.0	0.0
	269	pv	-6.001250	4.850753	-16.974098	0.0	0.0	0.0
	270	pv	-3.600750	3.464823	-16.974098	0.0	0.0	0.0
	271	pv	-8.401750	3.464823	-16.974098	0.0	0.0	0.0
	272	pv	-9.201916	2.078894	-14.710885	0.0	0.0	0.0
	273	pv	-9.201916	4.850753	-14.710885	0.0	0.0	0.0
	274	pv	-6.801417	3.464823	-14.710885	0.0	0.0	0.0
	275	pv	-11.602416	3.464823	-14.710885	0.0	0.0	0.0
	276	pv	-12.402583	2.078894	-12.447672	0.0	0.0	0.0
	277	pv	-12.402583	4.850753	-12.447672	0.0	0.0	0.0
	278	pv	-10.002083	3.464823	-12.447672	0.0	0.0	0.0
	279	pv	-13.202750	3.464823	-10.184459	0.0	0.0	0.0
	280	pv	2.000417	-0.692965	-19.237311	0.0	0.0	0.0
	281	pv	2.000417	2.078894	-19.237311	0.0	0.0	0.0
	282	pv	4.400917	0.692965	-19.237311	0.0	0.0	0.0
	283	pv	-0.400083	0.692965	-19.237311	0.0	0.0	0.0
	284	pv	-1.200250	-0.692965	-16.974098	0.0	0.0	0.0
	285	pv	-1.200250	2.078894	-16.974098	0.0	0.0	0.0
	286	pv	1.200250	0.692965	-16.974098	0.0	0.0	0.0
	287	pv	-3.600750	0.692965	-16.974098	0.0	0.0	0.0
	288	pv	-4.400917	-0.692965	-14.710885	0.0	0.0	0.0
	289	pv	-4.400917	2.078894	-14.710885	0.0	0.0	0.0
	290	pv	-2.000417	0.692965	-14.710885	0.0	0.0	0.0
	291	pv	-6.801417	0.692965	-14.710885	0.0	0.0	0.0
	292	pv	-7.601583	-0.692965	-12.447672	0.0	0.0	0.0
	293	pv	-7.601583	2.078894	-12.447672	0.0	0.0	0.0
	294	pv	-5.201083	0.692965	-12.447672	0.0	0.0	0.0
	295	pv	-10.002083	0.692965	-12.447672	0.0	0.0	0.0
	296	pv	-10.802250	-0.692965	-10.184459	0.0	0.0	0.0
	297	pv	-10.802250	2.078894	-10.184459	0.0	0.0	0.0
	298	pv	-8.401750	0.692965	-10.184459	0.0	0.0	0.0
	299	pv	-13.202750	0.692965	-10.184459	0.0	0.0	0.0
	300	pv	-14.002916	-0.692965	-7.921246	0.0	0.0	0.0
	301	pv	-14.002916	2.078894	-7.921246	0.0	0.0	0.0
	302	pv	-11.602416	0.692965	-7.921246	0.0	0.0	0.0
	303	pv	6.801417	-3.464823	-19.237311	0.0	0.0	0.0
	304	pv	6.801417	-0.692965	-19.237311	0.0	0.0	0.0
	305	pv	9.201916	-2.078894	-19.237311	0.0	0.0	0.0
	306	pv	4.400917	-2.078894	-19.237311	0.0	0.0	0.0
	307	pv	3.600750	-3.464823	-16.974098	0.0	0.0	0.0
	308	pv	3.600750	-0.692965	-16.974098	0.0	0.0	0.0
	309	pv	6.001250	-2.078894	-16.974098	0.0	0.0	0.0
	310	pv	1.200250	-2.078894	-16.974098	0.0	0.0	0.0
	311	pv	0.400083	-3.464823	-14.710885	0.0	0.0	0.0
	312	pv	0.400083	-0.692965	-14.710885	0.0	0.0	0.0
	313	pv	2.800583	-2.078894	-14.710885	0.0	0.0	0.0
	314	pv	-2.000417	-2.078894	-14.710885	0.0	0.0	0.0
	315	pv	-2.800583	-3.464823	-12.447672	0.0	0.0	0.0
	316	pv	-2.800583	-0.692965	-12.447672	0.0	0.0	0.0
	317	pv	-0.400083	-2.078894	-12.447672	0.0	0.0	0.0
	318	pv	-5.201083	-2.078894	-12.447672	0.0	0.0	0.0
	319	pv	-6.001250	-3.464823	-10.184459	0.0	0.0	0.0
	320	pv	-6.001250	-0.692965	-10.184459	0.0	0.0	0.0
	321	pv	-3.600750	-2.078894	-10.184459	0.0	0.0	0.0
	322	pv	-8.401750	-2.078894	-10.184459	0.0	0.0	0.0
	323	pv	-9.201916	-3.464823	-7.921246	0.0	0.0	0.0
	324	pv	-9.201916	-0.692965	-7.921246	0.0	0.0	0.0
	325	pv	-6.801417	-2.078894	-7.921246	0.0	0.0	0.0
	326	pv	-11.602416	-2.078894	-7.921246	0.0	0.0	0.0
	327	pv	-12.402583	-3.464823	-5.658033	0.0	0.0	0.0
	328	pv	-12.402583	-0.692965	-5.658033	0.0	0.0	0.0
	329	pv	-10.002083	-2.078894	-5.658033	0.0	0.0	0.0
	330	pv	-13.202750	-2.078894	-3.394820	0.0	0.0	0.0
	331	pv	11.602416	-6.236682	-19.237311	0.0	0.0	0.0
	332	pv	11.602416	-3.464823	-19.237311	0.0	0.0	0.0
	333	pv	14.002916	-4.850753	-19.237311	0.0	0.0	0.0
	334	pv	9.201916	-4.850753	-19.237311	0.0	0.0	0.0
	335	pv	8.401750	-6.236682	-16.974098	0.0	0.0	0.0
	336	pv	8.401750	-3.464823	-16.974098	0.0	0.0	0.0
	337	pv	10.802250	-4.850753	-16.974098	0.0	0.0	0.0
	338	pv	6.001250	-4.850753	-16.974098	0.0	0.0	0.0
	339	pv	5.201083	-6.236682	-14.710885	0.0	0.0	0.0
	340	pv	5.201083	-3.464823	-14.710885	0.0	0.0	0.0
	341	pv	7.601583	-4.850753	-14.710885	0.0	0.0	0.0
	342	pv	2.800583	-4.850753	-14.710885	0.0	0.0	0.0
	343	pv	2.000417	-6.236682	-12.447672	0.0	0.0	0.0
	344	pv	2.000417	-3.464823	-12.447672	0.0	0.0	0.0
	345	pv	4.400917	-4.850753	-12.447672	0.0	0.0	0.0
	346	pv	-0.400083	-4.850753	-12.447672	0.0	0.0	0.0
	347	pv	-1.200250	-6.236682	-10.184459	0.0	0.0	0.0
	348	pv	-1.200250	-3.464823	-10.184459	0.0	0.0	0.0
	349	pv	1.200250	-4.850753	-10.184459	0.0	0.0	0.0
	350	pv	-3.600750	-4.850753	-10.184459	0.0	0.0	0.0
	351	pv	-4.400917	-6.236682	-7.921246	0.0	0.0	0.0
	352	pv	-4.400917	-3.464823	-7.921246	0.0	0.0	0.0
	353	pv	-2.000417	-4.850753	-7.921246	0.0	0.0	0.0
	354	pv	-6.801417	-4.850753	-7.921246	0.0	0.0	0.0
	355	pv	-7.601583	-6.236682	-5.658033	0.0	0.0	0.0
	356	pv	-7.601583	-3.464823	-5.658033	0.0	0.0	0.0
	357	pv	-5.201083	-4.850753	-5.658033	0.0	0.0	0.0
	358	pv	-10.002083	-4.850753	-5.658033	0.0	0.0	0.0
	359	pv	-10.802250	-6.236682	-3.394820	0.0	0.0	0.0
	360	pv	-10.802250	-3.464823	-3.394820	0.0	0.0	0.0
	361	pv	-8.401750	-4.850753	-3.394820	0.0	0.0	0.0
	362	pv	-13.202750	-4.850753	-3.394820	0.0	0.0	0.0
	363	pv	-14.002916	-6.236682	-1.131607	0.0	0.0	0.0
	364	pv	-14.002916	-3.464823	-1.131607	0.0	0.0	0.0
	365	pv	-11.602416	-4.850753	-1.131607	0.0	0.0	0.0
	366	pv	14.002916	-7.622611	-19.237311	0.0	0.0	0.0
	367	pv	13.202750	-9.008540	-16.974098	0.0	0.0	0.0
	368	pv	13.202750	-6.236682	-16.974098	0.0	0.0	0.0
	369	pv	10.802250	-7.622611	-16.974098	0.0	0.0	0.0
	370	pv	10.002083	-9.008540	-14.710885	0.0	0.0	0.0
	371	pv	10.002083	-6.236682	-14.710885	0.0	0.0	0.0
	372	pv	12.402583	-7.622611	-14.710885	0.0	0.0	0.0
	373	pv	7.601583	-7.622611	-14.710885	0.0	0.0	0.0
	374	pv	6.801417	-9.008540	-12.447672	0.0	0.0	0.0
	375	pv	6.801417	-6.236682	-12.447672	0.0	0.0	0.0
	376	pv	9.201916	-7.622611	-12.447672	0.0	0.0	0.0
	377	pv	4.400917	-7.622611	-12.447672	0.0	0.0	0.0
	378	pv	3.600750	-9.008540	-10.184459	0.0	0.0	0.0
	379	pv	3.600750	-6.236682	-10.184459	0.0	0.0	0.0
	380	pv	6.001250	-7.622611	-10.184459	0.0	0.0	0.0
	381	pv	1.200250	-7.622611	-10.184459	0.0	0.0	0.0
	382	pv	0.400083	-9.008540	-7.921246	0.0	0.0	0.0
	383	pv	0.400083	-6.236682	-7.921246	0.0	0.0	0.0
	384	pv	2.800583	-7.622611	-7.921246	0.0	0.0	0.0
	385	pv	-2.000417	-7.622611	-7.921246	0.0	0.0	0.0
	386	pv	-2.800583	-9.008540	-5.658033	0.0	0.0	0.0
	387	pv	-2.800583	-6.236682	-5.658033	0.0	0.0	0.0
	388	pv	-0.400083	-7.622611	-5.658033	0.0	0.0	0.0
	389	pv	-5.201083	-7.622611	-5.658033	0.0	0.0	0.0
	390	pv	-6.001250	-9.008540	-3.394820	0.0	0.0	0.0
	391	pv	-6.001250	-6.236682	-3.394820	0.0	0.0	0.0
	392	pv	-3.600750	-7.622611	-3.394820	0.0	0.0	0.0
	393	pv	-8.401750	-7.622611	-3.394820	0.0	0.0	0.0
	394	pv	-9.201916	-9.008540	-1.131607	0.0	0.0	0.0
	395	pv	-9.201916	-6.236682	-1.131607	0.0	0.0	0.0
	396	pv	-6.801417	-7.622611	-1.131607	0.0	0.0	0.0
	397	pv	-11.602416	-7.622611	-1.131607	0.0	0.0	0.0
	398	pv	-12.402583	-9.008540	1.131607	0.0	0.0	0.0
	399	pv	-12.402583	-6.236682	1.131607	0.0	0.0	0.0
	400	pv	-10.002083	-7.622611	1.131607	0.0	0.0	0.0
	401	pv	-13.202750	-7.622611	3.394820	0.0	0.0	0.0
	402	pv	12.402583	-10.394470	-14.710885	0.0	0.0	0.0
	403	pv	11.602416	-11.780399	-12.447672	0.0	0.0	0.0
	404	pv	11.602416	-9.008540	-12.447672	0.0	0.0	0.0
	405	pv	14.002916	-10.394470	-12.447672	0.0	0.0	0.0
	406	pv	9.201916	-10.394470	-12.447672	0.0	0.0	0.0
	407	pv	8.401750	-11.780399	-10.184459	0.0	0.0	0.0
	408	pv	8.401750	-9.008540	-10.184459	0.0	0.0	0.0
	409	pv	10.802250	-10.394470	-10.184459	0.0	0.0	0.0
	410	pv	6.001250	-10.394470	-10.184459	0.0	0.0	0.0
	411	pv	5.201083	-11.780399	-7.921246	0.0	0.0	0.0
	412	pv	5.201083	-9.008540	-7.921246	0.0	0.0	0.0
	413	pv	7.601583	-10.394470	-7.921246	0.0	0.0	0.0
	414	pv	2.800583	-10.394470	-7.921246	0.0	0.0	0.0
	415	pv	2.000417	-11.780399	-5.658033	0.0	0.0	0.0
	416	pv	2.000417	-9.008540	-5.658033	0.0	0.0	0.0
	417	pv	4.400917	-10.394470	-5.658033	0.0	0.0	0.0
	418	pv	-0.400083	-10.394470	-5.658033	0.0	0.0	0.0
	419	pv	-1.200250	-11.780399	-3.394820	0.0	0.0	0.0
	420	pv	-1.200250	-9.008540	-3.394820	0.0	0.0	0.0
	421	pv	1.200250	-10.394470	-3.394820	0.0	0.0	0.0
	422	pv	-3.600750	-10.394470	-3.394820	0.0	0.0	0.0
	423	pv	-4.400917	-11.780399	-1.131607	0.0	0.0	0.0
	424	pv	-4.400917	-9.008540	-1.131607	0.0	0.0	0.0
	425	pv	-2.000417	-10.394470	-1.131607	0.0	0.0	0.0
	426	pv	-6.801417	-10.394470	-1.131607	0.0	0.0	0.0
	427	pv	-7.601583	-11.780399	1.131607	0.0	0.0	0.0
	428	pv	-7.601583	-9.008540	1.131607	0.0	0.0	0.0
	429	pv	-5.201083	-10.394470	1.131607	0.0	0.0	0.0
	430	pv	-10.002083	-10.394470	1.131607	0.0	0.0	0.0
	431	pv	-10.802250	-11.780399	3.394820	0.0	0.0	0.0
	432	pv	-10.802250	-9.008540	3.394820	0.0	0.0	0.0
	433	pv	-8.401750	-10.394470	3.394820	0.0	0.0	0.0
	434	pv	-13.202750	-10.394470	3.394820	0.0	0.0	0.0
	435	pv	-14.002916	-11.780399	5.658033	0.0	0.0	0.0
	436	pv	-14.002916	-9.008540	5.658033	0.0	0.0	0.0
	437	pv	-11.602416	-10.394470	5.658033	0.0	0.0	0.0
	438	pv	14.002916	-13.166328	-12.447672	0.0	0.0	0.0
	439	pv	13.202750	-11.780399	-10.184459	0.0	0.0	0.0
	440	pv	10.802250	-13.166328	-10.184459	0.0	0.0	0.0
	441	pv	10.002083	-11.780399	-7.921246	0.0	0.0	0.0
	442	pv	12.402583	-13.166328	-7.921246	0.0	0.0	0.0
	443	pv	7.601583	-13.166328	-7.921246	0.0	0.0	0.0
	444	pv	6.801417	-11.780399	-5.658033	0.0	0.0	0.0
	445	pv	9.201916	-13.166328	-5.658033	0.0	0.0	0.0
	446	pv	4.400917	-13.166328	-5.658033	0.0	0.0	0.0
	447	pv	3.600750	-11.780399	-3.394820	0.0	0.0	0.0
	448	pv	6.001250	-13.166328	-3.394820	0.0	0.0	0.0
	449	pv	1.200250	-13.166328	-3.394820	0.0	0.0	0.0
	450	pv	0.400083	-11.780399	-1.131607	0.0	0.0	0.0
	451	pv	2.800583	-13.166328	-1.131607	0.0	0.0	0.0
	452	pv	-2.000417	-13.166328	-1.131607	0.0	0.0	0.0
	453	pv	-2.800583	-11.780399	1.131607	0.0	0.0	0.0
	454	pv	-0.400083	-13.166328	1.131607	0.0	0.0	0.0
	455	pv	-5.201083	-13.166328	1.131607	0.0	0.0	0.0
	456	pv	-6.001250	-11.780399	3.394820	0.0	0.0	0.0
	457	pv	-3.600750	-13.166328	3.394820	0.0	0.0	0.0
	458	pv	-8.401750	-13.166328	3.394820	0.0	0.0	0.0
	459	pv	-9.201916	-11.780399	5.658033	0.0	0.0	0.0
	460	pv	-6.801417	-13.166328	5.658033	0.0	0.0	0.0
	461	pv	-11.602416	-13.166328	5.658033	0.0	0.0	0.0
	462	pv	-12.402583	-11.780399	7.921246	0.0	0.0	0.0
	463	pv	-10.002083	-13.166328	7.921246	0.0	0.0	0.0
	464	pv	-13.202750	-13.166328	10.184459	0.0	0.0	0.0
	465	pv	-12.402583	13.166328	-19.237311	0.0	0.0	0.0
	466	pv	-7.601583	10.394470	-19.237311	0.0	0.0	0.0
	467	pv	-7.601583	13.166328	-19.237311	0.0	0.0	0.0
	468	pv	-5.201083	11.780399	-19.237311	0.0	0.0	0.0
	469	pv	-10.002083	11.780399	-19.237311	0.0	0.0	0.0
	470	pv	-10.802250	10.394470	-16.974098	0.0	0.0	0.0
	471	pv	-10.802250	13.166328	-16.974098	0.0	0.0	0.0
	472	pv	-8.401750	11.780399	-16.974098	0.0	0.0	0.0
	473	pv	-13.202750	11.780399	-16.974098	0.0	0.0	0.0
	474	pv	-14.002916	10.394470	-14.710885	0.0	0.0	0.0
	475	pv	-14.002916	13.166328	-14.710885	0.0	0.0	0.0
	476	pv	-11.602416	11.780399	-14.710885	0.0	0.0	0.0
	477	pv	-2.800583	7.622611	-19.237311	0.0	0.0	0.0
	478	pv	-2.800583	10.394470	-19.237311	0.0	0.0	0.0
	479	pv	-0.400083	9.008540	-19.237311	0.0	0.0	0.0
	480	pv	-5.201083	9.008540	-19.237311	0.0	0.0	0.0
	481	pv	-6.001250	7.622611	-16.974098	0.0	0.0	0.0
	482	pv	-6.001250	10.394470	-16.974098	0.0	0.0	0.0
	483	pv	-3.600750	9.008540	-16.974098	0.0	0.0	0.0
	484	pv	-8.401750	9.008540	-16.974098	0.0	0.0	0.0
	485	pv	-9.201916	7.622611	-14.710885	0.0	0.0	0.0
	486	pv	-9.201916	10.394470	-14.710885	0.0	0.0	0.0
	487	pv	-6.801417	9.008540	-14.710885	0.0	0.0	0.0
	488	pv	-11.602416	9.008540	-14.710885	0.0	0.0	0.0
	489	pv	-12.402583	7.622611	-12.447672	0.0	0.0	0.0
	490	pv	-12.402583	10.394470	-12.447672	0.0	0.0	0.0
	491	pv	-10.002083	9.008540	-12.447672	0.0	0.0	0.0
	492	pv	-13.202750	9.008540	-10.184459	0.0	0.0	0.0
	493	pv	2.000417	4.850753	-19.237311	0.0	0.0	0.0
	494	pv	2.000417	7.622611	-19.237311	0.0	0.0	0.0
	495	pv	4.400917	6.236682	-19.237311	0.0	0.0	0.0
	496	pv	-0.400083	6.236682	-19.237311	0.0	0.0	0.0
	497	pv	-1.200250	4.850753	-16.974098	0.0	0.0	0.0
	498	pv	-1.200250	7.622611	-16.974098	0.0	0.0	0.0
	499	pv	1.200250	6.236682	-16.974098	0.0	0.0	0.0
	500	pv	-3.600750	6.236682	-16.974098	0.0	0.0	0.0
	501	pv	-4.400917	4.850753	-14.710885	0.0	0.0	0.0
	502	pv	-4.400917	7.622611	-14.710885	0.0	0.0	0.0
	503	pv	-2.000417	6.236682	-14.710885	0.0	0.0	0.0
	504	pv	-6.801417	6.236682	-14.710885	0.0	0.0	0.0
	505	pv	-7.601583	4.850753	-12.447672	0.0	0.0	0.0
	506	pv	-7.601583	7.622611	-12.447672	0.0	0.0	0.0
	507	pv	-5.201083	6.236682	-12.447672	0.0	0.0	0.0
	508	pv	-10.002083	6.236682	-12.447672	0.0	0.0	0.0
	509	pv	-10.802250	4.850753	-10.184459	0.0	0.0	0.0
	510	pv	-10.802250	7.622611	-10.184459	0.0	0.0	0.0
	511	pv	-8.401750	6.236682	-10.184459	0.0	0.0	0.0
	512	pv	-13.202750	6.236682	-10.184459	0.0	0.0	0.0
	513	pv	-14.002916	4.850753	-7.921246	0.0	0.0	0.0
	514	pv	-14.002916	7.622611	-7.921246	0.0	0.0	0.0
	515	pv	-11.602416	6.236682	-7.921246	0.0	0.0	0.0
	516	pv	6.801417	2.078894	-19.237311	0.0	0.0	0.0
	517	pv	6.801417	4.850753	-19.237311	0.0	0.0	0.0
	518	pv	9.201916	3.464823	-19.237311	0.0	0.0	0.0
	519	pv	4.400917	3.464823	-19.237311	0.0	0.0	0.0
	520	pv	3.600750	2.078894	-16.974098	0.0	0.0	0.0
	521	pv	3.600750	4.850753	-16.974098	0.0	0.0	0.0
	522	pv	6.001250	3.464823	-16.974098	0.0	0.0	0.0
	523	pv	1.200250	3.464823	-16.974098	0.0	0.0	0.0
	524	pv	0.400083	2.078894	-14.710885	0.0	0.0	0.0
	525	pv	0.400083	4.850753	-14.710885	0.0	0.0	0.0
	526	pv	2.800583	3.464823	-14.710885	0.0	0.0	0.0
	527	pv	-2.000417	3.464823	-14.710885	0.0	0.0	0.0
	528	pv	-2.800583	2.078894	-12.447672	0.0	0.0	0.0
	529	pv	-2.800583	4.850753	-12.447672	0.0	0.0	0.0
	530	pv	-0.400083	3.464823	-12.447672	0.0	0.0	0.0
	531	pv	-5.201083	3.464823	-12.447672	0.0	0.0	0.0
	532	pv	-6.001250	2.078894	-10.184459	0.0	0.0	0.0
	533	pv	-6.001250	4.850753	-10.184459	0.0	0.0	0.0
	534	pv	-3.600750	3.464823	-10.184459	0.0	0.0	0.0
	535	pv	-8.401750	3.464823	-10.184459	0.0	0.0	0.0
	536	pv	-9.201916	2.078894	-7.921246	0.0	0.0	0.0
	537	pv	-9.201916	4.850753	-7.921246	0.0	0.0	0.0
	538	pv	-6.801417	3.464823	-7.921246	0.0	0.0	0.0
	539	pv	-11.602416	3.464823	-7.921246	0.0	0.0	0.0
	540	pv	-12.402583	2.078894	-5.658033	0.0	0.0	0.0
	541	pv	-12.402583	4.850753	-5.658033	0.0	0.0	0.0
	542	pv	-10.002083	3.464823	-5.658033	0.0	0.0	0.0
	543	pv	-13.202750	3.464823	-3.394820	0.0	0.0	0.0
	544	pv	11.602416	-0.692965	-19.237311	0.0	0.0	0.0
	545	pv	11.602416	2.078894	-19.237311	0.0	0.0	0.0
	546	pv	14.002916	0.692965	-19.237311	0.0	0.0	0.0
	547	pv	9.201916	0.692965	-19.237311	0.0	0.0	0.0
	548	pv	8.401750	-0.692965	-16.974098	0.0	0.0	0.0
	549	pv	8.401750	2.078894	-16.974098	0.0	0.0	0.0
	550	pv	10.802250	0.692965	-16.974098	0.0	0.0	0.0
	551	pv	6.001250	0.692965	-16.974098	0.0	0.0	0.0
	552	pv	5.201083	-0.692965	-14.710885	0.0	0.0	0.0
	553	pv	5.201083	2.078894	-14.710885	0.0	0.0	0.0
	554	pv	7.601583	0.692965	-14.710885	0.0	0.0	0.0
	555	pv	2.800583	0.692965	-14.710885	0.0	0.0	0.0
	556	pv	2.000417	-0.692965	-12.447672	0.0	0.0	0.0
	557	pv	2.000417	2.078894	-12.447672	0.0	0.0	0.0
	558	pv	4.400917	0.692965	-12.447672	0.0	0.0	0.0
	559	pv	-0.400083	0.692965	-12.447672	0.0	0.0	0.0
	560	pv	-1.200250	-0.692965	-10.184459	0.0	0.0	0.0
	561	pv	-1.200250	2.078894	-10.184459	0.0	0.0	0.0
	562	pv	1.200250	0.692965	-10.184459	0.0	0.0	0.0
	563	pv	-3.600750	0.692965	-10.184459	0.0	0.0	0.0
	564	pv	-4.400917	-0.692965	-7.921246	0.0	0.0	0.0
	565	pv	-4.400917	2.078894	-7.921246	0.0	0.0	0.0
	566	pv	-2.000417	0.692965	-7.921246	0.0	0.0	0.0
	567	pv	-6.801417	0.692965	-7.921246	0.0	0.0	0.0
	568	pv	-7.601583	-0.692965	-5.658033	0.0	0.0	0.0