// Built using NPG-Builder
#ifndef P20_INC
#define P20_INC

molecule{
  name = "p20";

  atom[0] { type = "CB"; position( 1.18645, 0, 0); }
  atom[1] { type = "CB"; position( 1.18645, 1.37, 0); }
  atom[2] { type = "CB"; position( 0, 2.055, 0); }
  atom[3] { type = "CB"; position( 0, 3.425, 0); }
  atom[4] { type = "CB"; position( 3.55936, 0, 0); }
  atom[5] { type = "CB"; position( 3.55936, 1.37, 0); }
  atom[6] { type = "CB"; position( 2.37291, 2.055, 0); }
  atom[7] { type = "CB"; position( 2.37291, 3.425, 0); }
  atom[8] { type = "CB"; position( 5.93227, 0, 0); }
  atom[9] { type = "CB"; position( 5.93227, 1.37, 0); }
  atom[10] { type = "CB"; position( 4.74582, 2.055, 0); }
  atom[11] { type = "CB"; position( 4.74582, 3.425, 0); }
  atom[12] { type = "CB"; position( 8.30518, 0, 0); }
  atom[13] { type = "CB"; position( 8.30518, 1.37, 0); }
  atom[14] { type = "CB"; position( 7.11873, 2.055, 0); }
  atom[15] { type = "CB"; position( 7.11873, 3.425, 0); }
  atom[16] { type = "CB"; position( 10.6781, 0, 0); }
  atom[17] { type = "CB"; position( 10.6781, 1.37, 0); }
  atom[18] { type = "CB"; position( 9.49164, 2.055, 0); }
  atom[19] { type = "CB"; position( 9.49164, 3.425, 0); }
  atom[20] { type = "CB"; position( 13.051, 0, 0); }
  atom[21] { type = "CB"; position( 13.051, 1.37, 0); }
  atom[22] { type = "CB"; position( 11.8645, 2.055, 0); }
  atom[23] { type = "CB"; position( 11.8645, 3.425, 0); }
  atom[24] { type = "CB"; position( 15.4239, 0, 0); }
  atom[25] { type = "CB"; position( 15.4239, 1.37, 0); }
  atom[26] { type = "CB"; position( 14.2375, 2.055, 0); }
  atom[27] { type = "CB"; position( 14.2375, 3.425, 0); }
  atom[28] { type = "CB"; position( 17.7968, 0, 0); }
  atom[29] { type = "CB"; position( 17.7968, 1.37, 0); }
  atom[30] { type = "CB"; position( 16.6104, 2.055, 0); }
  atom[31] { type = "CB"; position( 16.6104, 3.425, 0); }
  atom[32] { type = "CB"; position( 20.1697, 0, 0); }
  atom[33] { type = "CB"; position( 20.1697, 1.37, 0); }
  atom[34] { type = "CB"; position( 18.9833, 2.055, 0); }
  atom[35] { type = "CB"; position( 18.9833, 3.425, 0); }
  atom[36] { type = "CB"; position( 22.5426, 0, 0); }
  atom[37] { type = "CB"; position( 22.5426, 1.37, 0); }
  atom[38] { type = "CB"; position( 21.3562, 2.055, 0); }
  atom[39] { type = "CB"; position( 21.3562, 3.425, 0); }
  atom[40] { type = "CB"; position( 24.9156, 0, 0); }
  atom[41] { type = "CB"; position( 24.9156, 1.37, 0); }
  atom[42] { type = "CB"; position( 23.7291, 2.055, 0); }
  atom[43] { type = "CB"; position( 23.7291, 3.425, 0); }
  atom[44] { type = "CB"; position( 27.2885, 0, 0); }
  atom[45] { type = "CB"; position( 27.2885, 1.37, 0); }
  atom[46] { type = "CB"; position( 26.102, 2.055, 0); }
  atom[47] { type = "CB"; position( 26.102, 3.425, 0); }
  atom[48] { type = "CB"; position( 29.6614, 0, 0); }
  atom[49] { type = "CB"; position( 29.6614, 1.37, 0); }
  atom[50] { type = "CB"; position( 28.4749, 2.055, 0); }
  atom[51] { type = "CB"; position( 28.4749, 3.425, 0); }
  atom[52] { type = "CB"; position( 32.0343, 0, 0); }
  atom[53] { type = "CB"; position( 32.0343, 1.37, 0); }
  atom[54] { type = "CB"; position( 30.8478, 2.055, 0); }
  atom[55] { type = "CB"; position( 30.8478, 3.425, 0); }
  atom[56] { type = "CB"; position( 34.4072, 0, 0); }
  atom[57] { type = "CB"; position( 34.4072, 1.37, 0); }
  atom[58] { type = "CB"; position( 33.2207, 2.055, 0); }
  atom[59] { type = "CB"; position( 33.2207, 3.425, 0); }
  atom[60] { type = "CB"; position( 36.7801, 0, 0); }
  atom[61] { type = "CB"; position( 36.7801, 1.37, 0); }
  atom[62] { type = "CB"; position( 35.5936, 2.055, 0); }
  atom[63] { type = "CB"; position( 35.5936, 3.425, 0); }
  atom[64] { type = "CB"; position( 39.153, 0, 0); }
  atom[65] { type = "CB"; position( 39.153, 1.37, 0); }
  atom[66] { type = "CB"; position( 37.9666, 2.055, 0); }
  atom[67] { type = "CB"; position( 37.9666, 3.425, 0); }
  atom[68] { type = "CB"; position( 1.18645, 4.11, 0); }
  atom[69] { type = "CB"; position( 1.18645, 5.48, 0); }
  atom[70] { type = "CB"; position( 0, 6.165, 0); }
  atom[71] { type = "CB"; position( 0, 7.535, 0); }
  atom[72] { type = "CB"; position( 3.55936, 4.11, 0); }
  atom[73] { type = "CB"; position( 3.55936, 5.48, 0); }
  atom[74] { type = "CB"; position( 2.37291, 6.165, 0); }
  atom[75] { type = "CB"; position( 2.37291, 7.535, 0); }
  atom[76] { type = "CB"; position( 5.93227, 4.11, 0); }
  atom[77] { type = "CB"; position( 5.93227, 5.48, 0); }
  atom[78] { type = "CB"; position( 4.74582, 6.165, 0); }
  atom[79] { type = "CB"; position( 4.74582, 7.535, 0); }
  atom[80] { type = "CB"; position( 8.30518, 4.11, 0); }
  atom[81] { type = "CB"; position( 8.30518, 5.48, 0); }
  atom[82] { type = "CB"; position( 7.11873, 6.165, 0); }
  atom[83] { type = "CB"; position( 7.11873, 7.535, 0); }
  atom[84] { type = "CB"; position( 10.6781, 4.11, 0); }
  atom[85] { type = "CB"; position( 10.6781, 5.48, 0); }
  atom[86] { type = "CB"; position( 9.49164, 6.165, 0); }
  atom[87] { type = "CB"; position( 9.49164, 7.535, 0); }
  atom[88] { type = "CB"; position( 13.051, 4.11, 0); }
  atom[89] { type = "CB"; position( 13.051, 5.48, 0); }
  atom[90] { type = "CB"; position( 11.8645, 6.165, 0); }
  atom[91] { type = "CB"; position( 11.8645, 7.535, 0); }
  atom[92] { type = "CB"; position( 15.4239, 4.11, 0); }
  atom[93] { type = "CB"; position( 15.4239, 5.48, 0); }
  atom[94] { type = "CB"; position( 14.2375, 6.165, 0); }
  atom[95] { type = "CB"; position( 14.2375, 7.535, 0); }
  atom[96] { type = "CB"; position( 17.7968, 4.11, 0); }
  atom[97] { type = "CB"; position( 17.7968, 5.48, 0); }
  atom[98] { type = "CB"; position( 16.6104, 6.165, 0); }
  atom[99] { type = "CB"; position( 16.6104, 7.535, 0); }
  atom[100] { type = "CB"; position( 20.1697, 4.11, 0); }
  atom[101] { type = "CB"; position( 20.1697, 5.48, 0); }
  atom[102] { type = "CB"; position( 18.9833, 6.165, 0); }
  atom[103] { type = "CB"; position( 18.9833, 7.535, 0); }
  atom[104] { type = "CB"; position( 22.5426, 4.11, 0); }
  atom[105] { type = "CB"; position( 22.5426, 5.48, 0); }
  atom[106] { type = "CB"; position( 21.3562, 6.165, 0); }
  atom[107] { type = "CB"; position( 21.3562, 7.535, 0); }
  atom[108] { type = "CB"; position( 24.9156, 4.11, 0); }
  atom[109] { type = "CB"; position( 24.9156, 5.48, 0); }
  atom[110] { type = "CB"; position( 23.7291, 6.165, 0); }
  atom[111] { type = "CB"; position( 23.7291, 7.535, 0); }
  atom[112] { type = "CB"; position( 27.2885, 4.11, 0); }
  atom[113] { type = "CB"; position( 27.2885, 5.48, 0); }
  atom[114] { type = "CB"; position( 26.102, 6.165, 0); }
  atom[115] { type = "CB"; position( 26.102, 7.535, 0); }
  atom[116] { type = "CB"; position( 29.6614, 4.11, 0); }
  atom[117] { type = "CB"; position( 29.6614, 5.48, 0); }
  atom[118] { type = "CB"; position( 28.4749, 6.165, 0); }
  atom[119] { type = "CB"; position( 28.4749, 7.535, 0); }
  atom[120] { type = "CB"; position( 32.0343, 4.11, 0); }
  atom[121] { type = "CB"; position( 32.0343, 5.48, 0); }
  atom[122] { type = "CB"; position( 30.8478, 6.165, 0); }
  atom[123] { type = "CB"; position( 30.8478, 7.535, 0); }
  atom[124] { type = "CB"; position( 34.4072, 4.11, 0); }
  atom[125] { type = "CB"; position( 34.4072, 5.48, 0); }
  atom[126] { type = "CB"; position( 33.2207, 6.165, 0); }
  atom[127] { type = "CB"; position( 33.2207, 7.535, 0); }
  atom[128] { type = "CB"; position( 36.7801, 4.11, 0); }
  atom[129] { type = "CB"; position( 36.7801, 5.48, 0); }
  atom[130] { type = "CB"; position( 35.5936, 6.165, 0); }
  atom[131] { type = "CB"; position( 35.5936, 7.535, 0); }
  atom[132] { type = "CB"; position( 39.153, 4.11, 0); }
  atom[133] { type = "CB"; position( 39.153, 5.48, 0); }
  atom[134] { type = "CB"; position( 37.9666, 6.165, 0); }
  atom[135] { type = "CB"; position( 37.9666, 7.535, 0); }
  atom[136] { type = "CB"; position( 1.18645, 8.22, 0); }
  atom[137] { type = "CB"; position( 1.18645, 9.59, 0); }
  atom[138] { type = "CB"; position( 0, 10.275, 0); }
  atom[139] { type = "CB"; position( 0, 11.645, 0); }
  atom[140] { type = "CB"; position( 3.55936, 8.22, 0); }
  atom[141] { type = "CB"; position( 3.55936, 9.59, 0); }
  atom[142] { type = "CB"; position( 2.37291, 10.275, 0); }
  atom[143] { type = "CB"; position( 2.37291, 11.645, 0); }
  atom[144] { type = "CB"; position( 5.93227, 8.22, 0); }
  atom[145] { type = "CB"; position( 5.93227, 9.59, 0); }
  atom[146] { type = "CB"; position( 4.74582, 10.275, 0); }
  atom[147] { type = "CB"; position( 4.74582, 11.645, 0); }
  atom[148] { type = "CB"; position( 8.30518, 8.22, 0); }
  atom[149] { type = "CB"; position( 8.30518, 9.59, 0); }
  atom[150] { type = "CB"; position( 7.11873, 10.275, 0); }
  atom[151] { type = "CB"; position( 7.11873, 11.645, 0); }
  atom[152] { type = "CB"; position( 10.6781, 8.22, 0); }
  atom[153] { type = "CB"; position( 10.6781, 9.59, 0); }
  atom[154] { type = "CB"; position( 9.49164, 10.275, 0); }
  atom[155] { type = "CB"; position( 9.49164, 11.645, 0); }
  atom[156] { type = "CB"; position( 13.051, 8.22, 0); }
  atom[157] { type = "CB"; position( 13.051, 9.59, 0); }
  atom[158] { type = "CB"; position( 11.8645, 10.275, 0); }
  atom[159] { type = "CB"; position( 11.8645, 11.645, 0); }
  atom[160] { type = "CB"; position( 15.4239, 8.22, 0); }
  atom[161] { type = "CB"; position( 15.4239, 9.59, 0); }
  atom[162] { type = "CB"; position( 14.2375, 10.275, 0); }
  atom[163] { type = "CB"; position( 14.2375, 11.645, 0); }
  atom[164] { type = "CB"; position( 17.7968, 8.22, 0); }
  atom[165] { type = "CB"; position( 17.7968, 9.59, 0); }
  atom[166] { type = "CB"; position( 16.6104, 10.275, 0); }
  atom[167] { type = "CB"; position( 16.6104, 11.645, 0); }
  atom[168] { type = "CB"; position( 20.1697, 8.22, 0); }
  atom[169] { type = "CB"; position( 20.1697, 9.59, 0); }
  atom[170] { type = "CB"; position( 18.9833, 10.275, 0); }
  atom[171] { type = "CB"; position( 18.9833, 11.645, 0); }
  atom[172] { type = "CB"; position( 22.5426, 8.22, 0); }
  atom[173] { type = "CB"; position( 22.5426, 9.59, 0); }
  atom[174] { type = "CB"; position( 21.3562, 10.275, 0); }
  atom[175] { type = "CB"; position( 21.3562, 11.645, 0); }
  atom[176] { type = "CB"; position( 24.9156, 8.22, 0); }
  atom[177] { type = "CB"; position( 24.9156, 9.59, 0); }
  atom[178] { type = "CB"; position( 23.7291, 10.275, 0); }
  atom[179] { type = "CB"; position( 23.7291, 11.645, 0); }
  atom[180] { type = "CB"; position( 27.2885, 8.22, 0); }
  atom[181] { type = "CB"; position( 27.2885, 9.59, 0); }
  atom[182] { type = "CB"; position( 26.102, 10.275, 0); }
  atom[183] { type = "CB"; position( 26.102, 11.645, 0); }
  atom[184] { type = "CB"; position( 29.6614, 8.22, 0); }
  atom[185] { type = "CB"; position( 29.6614, 9.59, 0); }
  atom[186] { type = "CB"; position( 28.4749, 10.275, 0); }
  atom[187] { type = "CB"; position( 28.4749, 11.645, 0); }
  atom[188] { type = "CB"; position( 32.0343, 8.22, 0); }
  atom[189] { type = "CB"; position( 32.0343, 9.59, 0); }
  atom[190] { type = "CB"; position( 30.8478, 10.275, 0); }
  atom[191] { type = "CB"; position( 30.8478, 11.645, 0); }
  atom[192] { type = "CB"; position( 34.4072, 8.22, 0); }
  atom[193] { type = "CB"; position( 34.4072, 9.59, 0); }
  atom[194] { type = "CB"; position( 33.2207, 10.275, 0); }
  atom[195] { type = "CB"; position( 33.2207, 11.645, 0); }
  atom[196] { type = "CB"; position( 36.7801, 8.22, 0); }
  atom[197] { type = "CB"; position( 36.7801, 9.59, 0); }
  atom[198] { type = "CB"; position( 35.5936, 10.275, 0); }
  atom[199] { type = "CB"; position( 35.5936, 11.645, 0); }
  atom[200] { type = "CB"; position( 39.153, 8.22, 0); }
  atom[201] { type = "CB"; position( 39.153, 9.59, 0); }
  atom[202] { type = "CB"; position( 37.9666, 10.275, 0); }
  atom[203] { type = "CB"; position( 37.9666, 11.645, 0); }
  atom[204] { type = "CB"; position( 1.18645, 12.33, 0); }
  atom[205] { type = "CB"; position( 1.18645, 13.7, 0); }
  atom[206] { type = "CB"; position( 0, 14.385, 0); }
  atom[207] { type = "CB"; position( 0, 15.755, 0); }
  atom[208] { type = "CB"; position( 3.55936, 12.33, 0); }
  atom[209] { type = "CB"; position( 3.55936, 13.7, 0); }
  atom[210] { type = "CB"; position( 2.37291, 14.385, 0); }
  atom[211] { type = "CB"; position( 2.37291, 15.755, 0); }
  atom[212] { type = "CB"; position( 5.93227, 12.33, 0); }
  atom[213] { type = "CB"; position( 5.93227, 13.7, 0); }
  atom[214] { type = "CB"; position( 4.74582, 14.385, 0); }
  atom[215] { type = "CB"; position( 4.74582, 15.755, 0); }
  atom[216] { type = "CB"; position( 8.30518, 12.33, 0); }
  atom[217] { type = "CB"; position( 8.30518, 13.7, 0); }
  atom[218] { type = "CB"; position( 7.11873, 14.385, 0); }
  atom[219] { type = "CB"; position( 7.11873, 15.755, 0); }
  atom[220] { type = "CB"; position( 10.6781, 12.33, 0); }
  atom[221] { type = "CB"; position( 10.6781, 13.7, 0); }
  atom[222] { type = "CB"; position( 9.49164, 14.385, 0); }
  atom[223] { type = "CB"; position( 9.49164, 15.755, 0); }
  atom[224] { type = "CB"; position( 13.051, 12.33, 0); }
  atom[225] { type = "CB"; position( 13.051, 13.7, 0); }
  atom[226] { type = "CB"; position( 11.8645, 14.385, 0); }
  atom[227] { type = "CB"; position( 11.8645, 15.755, 0); }
  atom[228] { type = "CB"; position( 15.4239, 12.33, 0); }
  atom[229] { type = "CB"; position( 15.4239, 13.7, 0); }
  atom[230] { type = "CB"; position( 14.2375, 14.385, 0); }
  atom[231] { type = "CB"; position( 14.2375, 15.755, 0); }
  atom[232] { type = "CB"; position( 17.7968, 12.33, 0); }
  atom[233] { type = "CB"; position( 17.7968, 13.7, 0); }
  atom[234] { type = "CB"; position( 16.6104, 14.385, 0); }
  atom[235] { type = "CB"; position( 16.6104, 15.755, 0); }
  atom[236] { type = "CB"; position( 20.1697, 12.33, 0); }
  atom[237] { type = "CB"; position( 20.1697, 13.7, 0); }
  atom[238] { type = "CB"; position( 18.9833, 14.385, 0); }
  atom[239] { type = "CB"; position( 18.9833, 15.755, 0); }
  atom[240] { type = "CB"; position( 22.5426, 12.33, 0); }
  atom[241] { type = "CB"; position( 22.5426, 13.7, 0); }
  atom[242] { type = "CB"; position( 21.3562, 14.385, 0); }
  atom[243] { type = "CB"; position( 21.3562, 15.755, 0); }
  atom[244] { type = "CB"; position( 24.9156, 12.33, 0); }
  atom[245] { type = "CB"; position( 24.9156, 13.7, 0); }
  atom[246] { type = "CB"; position( 23.7291, 14.385, 0); }
  atom[247] { type = "CB"; position( 23.7291, 15.755, 0); }
  atom[248] { type = "CB"; position( 27.2885, 12.33, 0); }
  atom[249] { type = "CB"; position( 27.2885, 13.7, 0); }
  atom[250] { type = "CB"; position( 26.102, 14.385, 0); }
  atom[251] { type = "CB"; position( 26.102, 15.755, 0); }
  atom[252] { type = "CB"; position( 29.6614, 12.33, 0); }
  atom[253] { type = "CB"; position( 29.6614, 13.7, 0); }
  atom[254] { type = "CB"; position( 28.4749, 14.385, 0); }
  atom[255] { type = "CB"; position( 28.4749, 15.755, 0); }
  atom[256] { type = "CB"; position( 32.0343, 12.33, 0); }
  atom[257] { type = "CB"; position( 32.0343, 13.7, 0); }
  atom[258] { type = "CB"; position( 30.8478, 14.385, 0); }
  atom[259] { type = "CB"; position( 30.8478, 15.755, 0); }
  atom[260] { type = "CB"; position( 34.4072, 12.33, 0); }
  atom[261] { type = "CB"; position( 34.4072, 13.7, 0); }
  atom[262] { type = "CB"; position( 33.2207, 14.385, 0); }
  atom[263] { type = "CB"; position( 33.2207, 15.755, 0); }
  atom[264] { type = "CB"; position( 36.7801, 12.33, 0); }
  atom[265] { type = "CB"; position( 36.7801, 13.7, 0); }
  atom[266] { type = "CB"; position( 35.5936, 14.385, 0); }
  atom[267] { type = "CB"; position( 35.5936, 15.755, 0); }
  atom[268] { type = "CB"; position( 39.153, 12.33, 0); }
  atom[269] { type = "CB"; position( 39.153, 13.7, 0); }
  atom[270] { type = "CB"; position( 37.9666, 14.385, 0); }
  atom[271] { type = "CB"; position( 37.9666, 15.755, 0); }
  atom[272] { type = "CB"; position( 1.18645, 16.44, 0); }
  atom[273] { type = "CB"; position( 1.18645, 17.81, 0); }
  atom[274] { type = "CB"; position( 0, 18.495, 0); }
  atom[275] { type = "CB"; position( 0, 19.865, 0); }
  atom[276] { type = "CB"; position( 3.55936, 16.44, 0); }
  atom[277] { type = "CB"; position( 3.55936, 17.81, 0); }
  atom[278] { type = "CB"; position( 2.37291, 18.495, 0); }
  atom[279] { type = "CB"; position( 2.37291, 19.865, 0); }
  atom[280] { type = "CB"; position( 5.93227, 16.44, 0); }
  atom[281] { type = "CB"; position( 5.93227, 17.81, 0); }
  atom[282] { type = "CB"; position( 4.74582, 18.495, 0); }
  atom[283] { type = "CB"; position( 4.74582, 19.865, 0); }
  atom[284] { type = "CB"; position( 8.30518, 16.44, 0); }
  atom[285] { type = "CB"; position( 8.30518, 17.81, 0); }
  atom[286] { type = "CB"; position( 7.11873, 18.495, 0); }
  atom[287] { type = "CB"; position( 7.11873, 19.865, 0); }
  atom[288] { type = "CB"; position( 10.6781, 16.44, 0); }
  atom[289] { type = "CB"; position( 10.6781, 17.81, 0); }
  atom[290] { type = "CB"; position( 9.49164, 18.495, 0); }
  atom[291] { type = "CB"; position( 9.49164, 19.865, 0); }
  atom[292] { type = "CB"; position( 13.051, 16.44, 0); }
  atom[293] { type = "CB"; position( 13.051, 17.81, 0); }
  atom[294] { type = "CB"; position( 11.8645, 18.495, 0); }
  atom[295] { type = "CB"; position( 11.8645, 19.865, 0); }
  atom[296] { type = "CB"; position( 15.4239, 16.44, 0); }
  atom[297] { type = "CB"; position( 14.2375, 18.495, 0); }
  atom[298] { type = "CB"; position( 14.2375, 19.865, 0); }
  atom[299] { type = "CB"; position( 24.9156, 16.44, 0); }
  atom[300] { type = "CB"; position( 27.2885, 16.44, 0); }
  atom[301] { type = "CB"; position( 27.2885, 17.81, 0); }
  atom[302] { type = "CB"; position( 26.102, 18.495, 0); }
  atom[303] { type = "CB"; position( 26.102, 19.865, 0); }
  atom[304] { type = "CB"; position( 29.6614, 16.44, 0); }
  atom[305] { type = "CB"; position( 29.6614, 17.81, 0); }
  atom[306] { type = "CB"; position( 28.4749, 18.495, 0); }
  atom[307] { type = "CB"; position( 28.4749, 19.865, 0); }
  atom[308] { type = "CB"; position( 32.0343, 16.44, 0); }
  atom[309] { type = "CB"; position( 32.0343, 17.81, 0); }
  atom[310] { type = "CB"; position( 30.8478, 18.495, 0); }
  atom[311] { type = "CB"; position( 30.8478, 19.865, 0); }
  atom[312] { type = "CB"; position( 34.4072, 16.44, 0); }
  atom[313] { type = "CB"; position( 34.4072, 17.81, 0); }
  atom[314] { type = "CB"; position( 33.2207, 18.495, 0); }
  atom[315] { type = "CB"; position( 33.2207, 19.865, 0); }
  atom[316] { type = "CB"; position( 36.7801, 16.44, 0); }
  atom[317] { type = "CB"; position( 36.7801, 17.81, 0); }
  atom[318] { type = "CB"; position( 35.5936, 18.495, 0); }
  atom[319] { type = "CB"; position( 35.5936, 19.865, 0); }
  atom[320] { type = "CB"; position( 39.153, 16.44, 0); }
  atom[321] { type = "CB"; position( 39.153, 17.81, 0); }
  atom[322] { type = "CB"; position( 37.9666, 18.495, 0); }
  atom[323] { type = "CB"; position( 37.9666, 19.865, 0); }
  atom[324] { type = "CB"; position( 1.18645, 20.55, 0); }
  atom[325] { type = "CB"; position( 1.18645, 21.92, 0); }
  atom[326] { type = "CB"; position( 0, 22.605, 0); }
  atom[327] { type = "CB"; position( 0, 23.975, 0); }
  atom[328] { type = "CB"; position( 3.55936, 20.55, 0); }
  atom[329] { type = "CB"; position( 3.55936, 21.92, 0); }
  atom[330] { type = "CB"; position( 2.37291, 22.605, 0); }
  atom[331] { type = "CB"; position( 2.37291, 23.975, 0); }
  atom[332] { type = "CB"; position( 5.93227, 20.55, 0); }
  atom[333] { type = "CB"; position( 5.93227, 21.92, 0); }
  atom[334] { type = "CB"; position( 4.74582, 22.605, 0); }
  atom[335] { type = "CB"; position( 4.74582, 23.975, 0); }
  atom[336] { type = "CB"; position( 8.30518, 20.55, 0); }
  atom[337] { type = "CB"; position( 8.30518, 21.92, 0); }
  atom[338] { type = "CB"; position( 7.11873, 22.605, 0); }
  atom[339] { type = "CB"; position( 7.11873, 23.975, 0); }
  atom[340] { type = "CB"; position( 10.6781, 20.55, 0); }
  atom[341] { type = "CB"; position( 10.6781, 21.92, 0); }
  atom[342] { type = "CB"; position( 9.49164, 22.605, 0); }
  atom[343] { type = "CB"; position( 9.49164, 23.975, 0); }
  atom[344] { type = "CB"; position( 13.051, 20.55, 0); }
  atom[345] { type = "CB"; position( 13.051, 21.92, 0); }
  atom[346] { type = "CB"; position( 11.8645, 22.605, 0); }
  atom[347] { type = "CB"; position( 11.8645, 23.975, 0); }
  atom[348] { type = "CB"; position( 14.2375, 22.605, 0); }
  atom[349] { type = "CB"; position( 14.2375, 23.975, 0); }
  atom[350] { type = "CB"; position( 24.9156, 21.92, 0); }
  atom[351] { type = "CB"; position( 23.7291, 23.975, 0); }
  atom[352] { type = "CB"; position( 27.2885, 20.55, 0); }
  atom[353] { type = "CB"; position( 27.2885, 21.92, 0); }
  atom[354] { type = "CB"; position( 26.102, 22.605, 0); }
  atom[355] { type = "CB"; position( 26.102, 23.975, 0); }
  atom[356] { type = "CB"; position( 29.6614, 20.55, 0); }
  atom[357] { type = "CB"; position( 29.6614, 21.92, 0); }
  atom[358] { type = "CB"; position( 28.4749, 22.605, 0); }
  atom[359] { type = "CB"; position( 28.4749, 23.975, 0); }
  atom[360] { type = "CB"; position( 32.0343, 20.55, 0); }
  atom[361] { type = "CB"; position( 32.0343, 21.92, 0); }
  atom[362] { type = "CB"; position( 30.8478, 22.605, 0); }
  atom[363] { type = "CB"; position( 30.8478, 23.975, 0); }
  atom[364] { type = "CB"; position( 34.4072, 20.55, 0); }
  atom[365] { type = "CB"; position( 34.4072, 21.92, 0); }
  atom[366] { type = "CB"; position( 33.2207, 22.605, 0); }
  atom[367] { type = "CB"; position( 33.2207, 23.975, 0); }
  atom[368] { type = "CB"; position( 36.7801, 20.55, 0); }
  atom[369] { type = "CB"; position( 36.7801, 21.92, 0); }
  atom[370] { type = "CB"; position( 35.5936, 22.605, 0); }
  atom[371] { type = "CB"; position( 35.5936, 23.975, 0); }
  atom[372] { type = "CB"; position( 39.153, 20.55, 0); }
  atom[373] { type = "CB"; position( 39.153, 21.92, 0); }
  atom[374] { type = "CB"; position( 37.9666, 22.605, 0); }
  atom[375] { type = "CB"; position( 37.9666, 23.975, 0); }
  atom[376] { type = "CB"; position( 1.18645, 24.66, 0); }
  atom[377] { type = "CB"; position( 1.18645, 26.03, 0); }
  atom[378] { type = "CB"; position( 0, 26.715, 0); }
  atom[379] { type = "CB"; position( 0, 28.085, 0); }
  atom[380] { type = "CB"; position( 3.55936, 24.66, 0); }
  atom[381] { type = "CB"; position( 3.55936, 26.03, 0); }
  atom[382] { type = "CB"; position( 2.37291, 26.715, 0); }
  atom[383] { type = "CB"; position( 2.37291, 28.085, 0); }
  atom[384] { type = "CB"; position( 5.93227, 24.66, 0); }
  atom[385] { type = "CB"; position( 5.93227, 26.03, 0); }
  atom[386] { type = "CB"; position( 4.74582, 26.715, 0); }
  atom[387] { type = "CB"; position( 4.74582, 28.085, 0); }
  atom[388] { type = "CB"; position( 8.30518, 24.66, 0); }
  atom[389] { type = "CB"; position( 8.30518, 26.03, 0); }
  atom[390] { type = "CB"; position( 7.11873, 26.715, 0); }
  atom[391] { type = "CB"; position( 7.11873, 28.085, 0); }
  atom[392] { type = "CB"; position( 10.6781, 24.66, 0); }
  atom[393] { type = "CB"; position( 10.6781, 26.03, 0); }
  atom[394] { type = "CB"; position( 9.49164, 26.715, 0); }
  atom[395] { type = "CB"; position( 9.49164, 28.085, 0); }
  atom[396] { type = "CB"; position( 13.051, 24.66, 0); }
  atom[397] { type = "CB"; position( 13.051, 26.03, 0); }
  atom[398] { type = "CB"; position( 11.8645, 26.715, 0); }
  atom[399] { type = "CB"; position( 11.8645, 28.085, 0); }
  atom[400] { type = "CB"; position( 15.4239, 26.03, 0); }
  atom[401] { type = "CB"; position( 14.2375, 26.715, 0); }
  atom[402] { type = "CB"; position( 14.2375, 28.085, 0); }
  atom[403] { type = "CB"; position( 16.6104, 26.715, 0); }
  atom[404] { type = "CB"; position( 16.6104, 28.085, 0); }
  atom[405] { type = "CB"; position( 18.9833, 26.715, 0); }
  atom[406] { type = "CB"; position( 18.9833, 28.085, 0); }
  atom[407] { type = "CB"; position( 22.5426, 26.03, 0); }
  atom[408] { type = "CB"; position( 21.3562, 26.715, 0); }
  atom[409] { type = "CB"; position( 21.3562, 28.085, 0); }
  atom[410] { type = "CB"; position( 24.9156, 24.66, 0); }
  atom[411] { type = "CB"; position( 24.9156, 26.03, 0); }
  atom[412] { type = "CB"; position( 23.7291, 26.715, 0); }
  atom[413] { type = "CB"; position( 23.7291, 28.085, 0); }
  atom[414] { type = "CB"; position( 27.2885, 24.66, 0); }
  atom[415] { type = "CB"; position( 27.2885, 26.03, 0); }
  atom[416] { type = "CB"; position( 26.102, 26.715, 0); }
  atom[417] { type = "CB"; position( 26.102, 28.085, 0); }
  atom[418] { type = "CB"; position( 29.6614, 24.66, 0); }
  atom[419] { type = "CB"; position( 29.6614, 26.03, 0); }
  atom[420] { type = "CB"; position( 28.4749, 26.715, 0); }
  atom[421] { type = "CB"; position( 28.4749, 28.085, 0); }
  atom[422] { type = "CB"; position( 32.0343, 24.66, 0); }
  atom[423] { type = "CB"; position( 32.0343, 26.03, 0); }
  atom[424] { type = "CB"; position( 30.8478, 26.715, 0); }
  atom[425] { type = "CB"; position( 30.8478, 28.085, 0); }
  atom[426] { type = "CB"; position( 34.4072, 24.66, 0); }
  atom[427] { type = "CB"; position( 34.4072, 26.03, 0); }
  atom[428] { type = "CB"; position( 33.2207, 26.715, 0); }
  atom[429] { type = "CB"; position( 33.2207, 28.085, 0); }
  atom[430] { type = "CB"; position( 36.7801, 24.66, 0); }
  atom[431] { type = "CB"; position( 36.7801, 26.03, 0); }
  atom[432] { type = "CB"; position( 35.5936, 26.715, 0); }
  atom[433] { type = "CB"; position( 35.5936, 28.085, 0); }
  atom[434] { type = "CB"; position( 39.153, 24.66, 0); }
  atom[435] { type = "CB"; position( 39.153, 26.03, 0); }
  atom[436] { type = "CB"; position( 37.9666, 26.715, 0); }
  atom[437] { type = "CB"; position( 37.9666, 28.085, 0); }
  atom[438] { type = "CB"; position( 1.18645, 28.77, 0); }
  atom[439] { type = "CB"; position( 1.18645, 30.14, 0); }
  atom[440] { type = "CB"; position( 0, 30.825, 0); }
  atom[441] { type = "CB"; position( 0, 32.195, 0); }
  atom[442] { type = "CB"; position( 3.55936, 28.77, 0); }
  atom[443] { type = "CB"; position( 3.55936, 30.14, 0); }
  atom[444] { type = "CB"; position( 2.37291, 30.825, 0); }
  atom[445] { type = "CB"; position( 2.37291, 32.195, 0); }
  atom[446] { type = "CB"; position( 5.93227, 28.77, 0); }
  atom[447] { type = "CB"; position( 5.93227, 30.14, 0); }
  atom[448] { type = "CB"; position( 4.74582, 30.825, 0); }
  atom[449] { type = "CB"; position( 4.74582, 32.195, 0); }
  atom[450] { type = "CB"; position( 8.30518, 28.77, 0); }
  atom[451] { type = "CB"; position( 8.30518, 30.14, 0); }
  atom[452] { type = "CB"; position( 7.11873, 30.825, 0); }
  atom[453] { type = "CB"; position( 7.11873, 32.195, 0); }
  atom[454] { type = "CB"; position( 10.6781, 28.77, 0); }
  atom[455] { type = "CB"; position( 10.6781, 30.14, 0); }
  atom[456] { type = "CB"; position( 9.49164, 30.825, 0); }
  atom[457] { type = "CB"; position( 9.49164, 32.195, 0); }
  atom[458] { type = "CB"; position( 13.051, 28.77, 0); }
  atom[459] { type = "CB"; position( 13.051, 30.14, 0); }
  atom[460] { type = "CB"; position( 11.8645, 30.825, 0); }
  atom[461] { type = "CB"; position( 11.8645, 32.195, 0); }
  atom[462] { type = "CB"; position( 15.4239, 28.77, 0); }
  atom[463] { type = "CB"; position( 15.4239, 30.14, 0); }
  atom[464] { type = "CB"; position( 14.2375, 30.825, 0); }
  atom[465] { type = "CB"; position( 14.2375, 32.195, 0); }
  atom[466] { type = "CB"; position( 17.7968, 28.77, 0); }
  atom[467] { type = "CB"; position( 17.7968, 30.14, 0); }
  atom[468] { type = "CB"; position( 16.6104, 30.825, 0); }
  atom[469] { type = "CB"; position( 16.6104, 32.195, 0); }
  atom[470] { type = "CB"; position( 20.1697, 28.77, 0); }
  atom[471] { type = "CB"; position( 20.1697, 30.14, 0); }
  atom[472] { type = "CB"; position( 18.9833, 30.825, 0); }
  atom[473] { type = "CB"; position( 18.9833, 32.195, 0); }
  atom[474] { type = "CB"; position( 22.5426, 28.77, 0); }
  atom[475] { type = "CB"; position( 22.5426, 30.14, 0); }
  atom[476] { type = "CB"; position( 21.3562, 30.825, 0); }
  atom[477] { type = "CB"; position( 21.3562, 32.195, 0); }
  atom[478] { type = "CB"; position( 24.9156, 28.77, 0); }
  atom[479] { type = "CB"; position( 24.9156, 30.14, 0); }
  atom[480] { type = "CB"; position( 23.7291, 30.825, 0); }
  atom[481] { type = "CB"; position( 23.7291, 32.195, 0); }
  atom[482] { type = "CB"; position( 27.2885, 28.77, 0); }
  atom[483] { type = "CB"; position( 27.2885, 30.14, 0); }
  atom[484] { type = "CB"; position( 26.102, 30.825, 0); }
  atom[485] { type = "CB"; position( 26.102, 32.195, 0); }
  atom[486] { type = "CB"; position( 29.6614, 28.77, 0); }
  atom[487] { type = "CB"; position( 29.6614, 30.14, 0); }
  atom[488] { type = "CB"; position( 28.4749, 30.825, 0); }
  atom[489] { type = "CB"; position( 28.4749, 32.195, 0); }
  atom[490] { type = "CB"; position( 32.0343, 28.77, 0); }
  atom[491] { type = "CB"; position( 32.0343, 30.14, 0); }
  atom[492] { type = "CB"; position( 30.8478, 30.825, 0); }
  atom[493] { type = "CB"; position( 30.8478, 32.195, 0); }
  atom[494] { type = "CB"; position( 34.4072, 28.77, 0); }
  atom[495] { type = "CB"; position( 34.4072, 30.14, 0); }
  atom[496] { type = "CB"; position( 33.2207, 30.825, 0); }
  atom[497] { type = "CB"; position( 33.2207, 32.195, 0); }
  atom[498] { type = "CB"; position( 36.7801, 28.77, 0); }
  atom[499] { type = "CB"; position( 36.7801, 30.14, 0); }
  atom[500] { type = "CB"; position( 35.5936, 30.825, 0); }
  atom[501] { type = "CB"; position( 35.5936, 32.195, 0); }