#ifndef _METALS_INC_
#define _METALS_INC_

molecule{
  name = "Au";
  
  atom[0]{
     type="Au";
     position( 0.0, 0.0, 0.0 );
  }
}
molecule{
  name = "Ag";
  
  atom[0]{
     type="Ag";
     position( 0.0, 0.0, 0.0 );
  }
}
molecule{
  name = "Pt";
  
  atom[0]{
     type="Pt";
     position( 0.0, 0.0, 0.0 );
  }
}
#endif
