<OpenMD version=1>
  <MetaData>
    molecule{
      name = "Pd";
      atom[0]{
	type = "Pd";
	position(0.0, 0.0, 0.0);
      }
   }
    
    molecule{
      name = "Pt";
      atom[0]{
	type = "Pt_FQ";
	position(0.0, 0.0, 0.0);
      }
    }

    component{
      type = "Pt";
  nMol =        784;
    }

  flucQ {
    propagator = "Langevin";
    targetTemp = 0.1;
    tauThermostat = 10.0;
    dragCoefficient = 0.0001;
    constrainRegions = "true";
  }

electricField = (0,0,1);
forceFieldFileName = "PtFQ.frc";
forceField = "FlucQ";
outputFluctuatingCharges = true;
outputElectricField = true;
ensemble = NVT;
dt = 1;
runTime = 1;
sampleTime = 1;
statusTime = 1;

cutoffMethod = "ewald_full";
cutoffRadius = 13.5;
electrostaticScreeningMethod = "DAMPED";
statFileFormat = "TIME|TOTAL_ENERGY|POTENTIAL_ENERGY|KINETIC_ENERGY|TEMPERATURE|PRESSURE|VOLUME|CONSERVED_QUANTITY|ELECTROSTATIC_POTENTIAL|ELECTRONIC_TEMPERATURE";
dampingAlpha = 0.1;

targetTemp = 300;
targetPressure =1;
surfaceTension = 0;

tauThermostat = 1e3;
tauBarostat = 1e6;

tempSet = "false";
useInitialTime = "false";
useInitialExtendedSystemState = "false";

## Last run using OpenMD Version: 2.1 Revision: 1934
  </MetaData>
  <Snapshot>
    <FrameData>
        Time: 0
        Hmat: {{ 27.23, 0, 0 }, { 0, 27.23, 0 }, { 0, 0, 27.23 }}
  Thermostat: 0 , 0
    Barostat: {{ 0, 0, 0 }, { 0, 0, 0 }, { 0, 0, 0 }}
    </FrameData>
    <StuntDoubles>
         0      pv                  0              1.945              1.945  -1.477236e-04 -1.991278e-04 -3.978902e-05
         1      pv             -1.945                  0              1.945   1.836425e-04  4.415401e-04 -1.066665e-04
         2      pv                  0                  0                  0  -2.972320e-05 -6.933006e-05  2.987719e-05
         3      pv             -1.945              1.945                  0  -6.195777e-06 -1.730822e-04  1.165783e-04
         4      pv                  0              1.945              5.835  -1.477236e-04 -1.991278e-04 -3.978902e-05
         5      pv             -1.945                  0              5.835   1.836425e-04  4.415401e-04 -1.066665e-04
         6      pv                  0                  0               3.89  -2.972320e-05 -6.933006e-05  2.987719e-05
         7      pv             -1.945              1.945               3.89  -6.195777e-06 -1.730822e-04  1.165783e-04
         8      pv                  0              1.945              9.725  -1.477236e-04 -1.991278e-04 -3.978902e-05
         9      pv             -1.945                  0              9.725   1.836425e-04  4.415401e-04 -1.066665e-04
        10      pv                  0                  0               7.78  -2.972320e-05 -6.933006e-05  2.987719e-05
        11      pv             -1.945              1.945               7.78  -6.195777e-06 -1.730822e-04  1.165783e-04
        12      pv                  0              1.945             13.615  -1.477236e-04 -1.991278e-04 -3.978902e-05
        13      pv             -1.945                  0             13.615   1.836425e-04  4.415401e-04 -1.066665e-04
        14      pv                  0                  0              11.67  -2.972320e-05 -6.933006e-05  2.987719e-05
        15      pv             -1.945              1.945              11.67  -6.195777e-06 -1.730822e-04  1.165783e-04
        16      pv                  0              5.835              1.945  -1.477236e-04 -1.991278e-04 -3.978902e-05
        17      pv             -1.945               3.89              1.945   1.836425e-04  4.415401e-04 -1.066665e-04
        18      pv                  0               3.89                  0  -2.972320e-05 -6.933006e-05  2.987719e-05
        19      pv             -1.945              5.835                  0  -6.195777e-06 -1.730822e-04  1.165783e-04
        20      pv                  0              5.835              5.835  -1.477236e-04 -1.991278e-04 -3.978902e-05
        21      pv             -1.945               3.89              5.835   1.836425e-04  4.415401e-04 -1.066665e-04
        22      pv                  0               3.89               3.89  -2.972320e-05 -6.933006e-05  2.987719e-05
        23      pv             -1.945              5.835               3.89  -6.195777e-06 -1.730822e-04  1.165783e-04
        24      pv                  0              5.835              9.725  -1.477236e-04 -1.991278e-04 -3.978902e-05
        25      pv             -1.945               3.89              9.725   1.836425e-04  4.415401e-04 -1.066665e-04
        26      pv                  0               3.89               7.78  -2.972320e-05 -6.933006e-05  2.987719e-05
        27      pv             -1.945              5.835               7.78  -6.195777e-06 -1.730822e-04  1.165783e-04
        28      pv                  0              5.835             13.615  -1.477236e-04 -1.991278e-04 -3.978902e-05
        29      pv             -1.945               3.89             13.615   1.836425e-04  4.415401e-04 -1.066665e-04
        30      pv                  0               3.89              11.67  -2.972320e-05 -6.933006e-05  2.987719e-05
        31      pv             -1.945              5.835              11.67  -6.195777e-06 -1.730822e-04  1.165783e-04
        32      pv                  0              9.725              1.945  -1.477236e-04 -1.991278e-04 -3.978902e-05
        33      pv             -1.945               7.78              1.945   1.836425e-04  4.415401e-04 -1.066665e-04
        34      pv                  0               7.78                  0  -2.972320e-05 -6.933006e-05  2.987719e-05
        35      pv             -1.945              9.725                  0  -6.195777e-06 -1.730822e-04  1.165783e-04
        36      pv                  0              9.725              5.835  -1.477236e-04 -1.991278e-04 -3.978902e-05
        37      pv             -1.945               7.78              5.835   1.836425e-04  4.415401e-04 -1.066665e-04
        38      pv                  0               7.78               3.89  -2.972320e-05 -6.933006e-05  2.987719e-05
        39      pv             -1.945              9.725               3.89  -6.195777e-06 -1.730822e-04  1.165783e-04
        40      pv                  0              9.725              9.725  -1.477236e-04 -1.991278e-04 -3.978902e-05
        41      pv             -1.945               7.78              9.725   1.836425e-04  4.415401e-04 -1.066665e-04
        42      pv                  0               7.78               7.78  -2.972320e-05 -6.933006e-05  2.987719e-05
        43      pv             -1.945              9.725               7.78  -6.195777e-06 -1.730822e-04  1.165783e-04
        44      pv                  0              9.725             13.615  -1.477236e-04 -1.991278e-04 -3.978902e-05
        45      pv             -1.945               7.78             13.615   1.836425e-04  4.415401e-04 -1.066665e-04
        46      pv                  0               7.78              11.67  -2.972320e-05 -6.933006e-05  2.987719e-05
        47      pv             -1.945              9.725              11.67  -6.195777e-06 -1.730822e-04  1.165783e-04
        48      pv                  0             13.615              1.945  -1.477236e-04 -1.991278e-04 -3.978902e-05
        49      pv             -1.945              11.67              1.945   1.836425e-04  4.415401e-04 -1.066665e-04
        50      pv                  0              11.67                  0  -2.972320e-05 -6.933006e-05  2.987719e-05
        51      pv             -1.945             13.615                  0  -6.195777e-06 -1.730822e-04  1.165783e-04
        52      pv                  0             13.615              5.835  -1.477236e-04 -1.991278e-04 -3.978902e-05
        53      pv             -1.945              11.67              5.835   1.836425e-04  4.415401e-04 -1.066665e-04
        54      pv                  0              11.67               3.89  -2.972320e-05 -6.933006e-05  2.987719e-05
        55      pv             -1.945             13.615               3.89  -6.195777e-06 -1.730822e-04  1.165783e-04
        56      pv                  0             13.615              9.725  -1.477236e-04 -1.991278e-04 -3.978902e-05
        57      pv             -1.945              11.67              9.725   1.836425e-04  4.415401e-04 -1.066665e-04
        58      pv                  0              11.67               7.78  -2.972320e-05 -6.933006e-05  2.987719e-05
        59      pv             -1.945             13.615               7.78  -6.195777e-06 -1.730822e-04  1.165783e-04
        60      pv                  0             13.615             13.615  -1.477236e-04 -1.991278e-04 -3.978902e-05
        61      pv             -1.945              11.67             13.615   1.836425e-04  4.415401e-04 -1.066665e-04
        62      pv                  0              11.67              11.67  -2.972320e-05 -6.933006e-05  2.987719e-05
        63      pv             -1.945             13.615              11.67  -6.195777e-06 -1.730822e-04  1.165783e-04
        64      pv                  0             17.505              1.945  -1.477236e-04 -1.991278e-04 -3.978902e-05
        65      pv             -1.945              15.56              1.945   1.836425e-04  4.415401e-04 -1.066665e-04
        66      pv                  0              15.56                  0  -2.972320e-05 -6.933006e-05  2.987719e-05
        67      pv             -1.945             17.505                  0  -6.195777e-06 -1.730822e-04  1.165783e-04
        68      pv                  0             17.505              5.835  -1.477236e-04 -1.991278e-04 -3.978902e-05
        69      pv             -1.945              15.56              5.835   1.836425e-04  4.415401e-04 -1.066665e-04
        70      pv                  0              15.56               3.89  -2.972320e-05 -6.933006e-05  2.987719e-05
        71      pv             -1.945             17.505               3.89  -6.195777e-06 -1.730822e-04  1.165783e-04
        72      pv                  0             17.505              9.725  -1.477236e-04 -1.991278e-04 -3.978902e-05
        73      pv             -1.945              15.56              9.725   1.836425e-04  4.415401e-04 -1.066665e-04
        74      pv                  0              15.56               7.78  -2.972320e-05 -6.933006e-05  2.987719e-05
        75      pv             -1.945             17.505               7.78  -6.195777e-06 -1.730822e-04  1.165783e-04
        76      pv                  0             17.505             13.615  -1.477236e-04 -1.991278e-04 -3.978902e-05
        77      pv             -1.945              15.56             13.615   1.836425e-04  4.415401e-04 -1.066665e-04
        78      pv                  0              15.56              11.67  -2.972320e-05 -6.933006e-05  2.987719e-05
        79      pv             -1.945             17.505              11.67  -6.195777e-06 -1.730822e-04  1.165783e-04
        80      pv                  0             21.395              1.945  -1.477236e-04 -1.991278e-04 -3.978902e-05
        81      pv             -1.945              19.45              1.945   1.836425e-04  4.415401e-04 -1.066665e-04
        82      pv                  0              19.45                  0  -2.972320e-05 -6.933006e-05  2.987719e-05
        83      pv             -1.945             21.395                  0  -6.195777e-06 -1.730822e-04  1.165783e-04
        84      pv                  0             21.395              5.835  -1.477236e-04 -1.991278e-04 -3.978902e-05
        85      pv             -1.945              19.45              5.835   1.836425e-04  4.415401e-04 -1.066665e-04
        86      pv                  0              19.45               3.89  -2.972320e-05 -6.933006e-05  2.987719e-05
        87      pv             -1.945             21.395               3.89  -6.195777e-06 -1.730822e-04  1.165783e-04
        88      pv                  0             21.395              9.725  -1.477236e-04 -1.991278e-04 -3.978902e-05
        89      pv             -1.945              19.45              9.725   1.836425e-04  4.415401e-04 -1.066665e-04
        90      pv                  0              19.45               7.78  -2.972320e-05 -6.933006e-05  2.987719e-05
        91      pv             -1.945             21.395               7.78  -6.195777e-06 -1.730822e-04  1.165783e-04
        92      pv                  0             21.395             13.615  -1.477236e-04 -1.991278e-04 -3.978902e-05
        93      pv             -1.945              19.45             13.615   1.836425e-04  4.415401e-04 -1.066665e-04
        94      pv                  0              19.45              11.67  -2.972320e-05 -6.933006e-05  2.987719e-05
        95      pv             -1.945             21.395              11.67  -6.195777e-06 -1.730822e-04  1.165783e-04
        96      pv                  0             25.285              1.945  -1.477236e-04 -1.991278e-04 -3.978902e-05
        97      pv             -1.945              23.34              1.945   1.836425e-04  4.415401e-04 -1.066665e-04
        98      pv                  0              23.34                  0  -2.972320e-05 -6.933006e-05  2.987719e-05
        99      pv             -1.945             25.285                  0  -6.195777e-06 -1.730822e-04  1.165783e-04
       100      pv                  0             25.285              5.835  -1.477236e-04 -1.991278e-04 -3.978902e-05
       101      pv             -1.945              23.34              5.835   1.836425e-04  4.415401e-04 -1.066665e-04
       102      pv                  0              23.34               3.89  -2.972320e-05 -6.933006e-05  2.987719e-05
       103      pv             -1.945             25.285               3.89  -6.195777e-06 -1.730822e-04  1.165783e-04
       104      pv                  0             25.285              9.725  -1.477236e-04 -1.991278e-04 -3.978902e-05
       105      pv             -1.945              23.34              9.725   1.836425e-04  4.415401e-04 -1.066665e-04
       106      pv                  0              23.34               7.78  -2.972320e-05 -6.933006e-05  2.987719e-05
       107      pv             -1.945             25.285               7.78  -6.195777e-06 -1.730822e-04  1.165783e-04
       108      pv                  0             25.285             13.615  -1.477236e-04 -1.991278e-04 -3.978902e-05
       109      pv             -1.945              23.34             13.615   1.836425e-04  4.415401e-04 -1.066665e-04
       110      pv                  0              23.34              11.67  -2.972320e-05 -6.933006e-05  2.987719e-05
       111      pv             -1.945             25.285              11.67  -6.195777e-06 -1.730822e-04  1.165783e-04
       112      pv               3.89              1.945              1.945  -1.477236e-04 -1.991278e-04 -3.978902e-05
       113      pv              1.945                  0              1.945   1.836425e-04  4.415401e-04 -1.066665e-04
       114      pv               3.89                  0                  0  -2.972320e-05 -6.933006e-05  2.987719e-05
       115      pv              1.945              1.945                  0  -6.195777e-06 -1.730822e-04  1.165783e-04
       116      pv               3.89              1.945              5.835  -1.477236e-04 -1.991278e-04 -3.978902e-05
       117      pv              1.945                  0              5.835   1.836425e-04  4.415401e-04 -1.066665e-04
       118      pv               3.89                  0               3.89  -2.972320e-05 -6.933006e-05  2.987719e-05
       119      pv              1.945              1.945               3.89  -6.195777e-06 -1.730822e-04  1.165783e-04
       120      pv               3.89              1.945              9.725  -1.477236e-04 -1.991278e-04 -3.978902e-05
       121      pv              1.945                  0              9.725   1.836425e-04  4.415401e-04 -1.066665e-04
       122      pv               3.89                  0               7.78  -2.972320e-05 -6.933006e-05  2.987719e-05
       123      pv              1.945              1.945               7.78  -6.195777e-06 -1.730822e-04  1.165783e-04
       124      pv               3.89              1.945             13.615  -1.477236e-04 -1.991278e-04 -3.978902e-05
       125      pv              1.945                  0             13.615   1.836425e-04  4.415401e-04 -1.066665e-04
       126      pv               3.89                  0              11.67  -2.972320e-05 -6.933006e-05  2.987719e-05
       127      pv              1.945              1.945              11.67  -6.195777e-06 -1.730822e-04  1.165783e-04
       128      pv               3.89              5.835              1.945  -1.477236e-04 -1.991278e-04 -3.978902e-05
       129      pv              1.945               3.89              1.945   1.836425e-04  4.415401e-04 -1.066665e-04
       130      pv               3.89               3.89                  0  -2.972320e-05 -6.933006e-05  2.987719e-05
       131      pv              1.945              5.835                  0  -6.195777e-06 -1.730822e-04  1.165783e-04
       132      pv               3.89              5.835              5.835  -1.477236e-04 -1.991278e-04 -3.978902e-05
       133      pv              1.945               3.89              5.835   1.836425e-04  4.415401e-04 -1.066665e-04
       134      pv               3.89               3.89               3.89  -2.972320e-05 -6.933006e-05  2.987719e-05
       135      pv              1.945              5.835               3.89  -6.195777e-06 -1.730822e-04  1.165783e-04
       136      pv               3.89              5.835              9.725  -1.477236e-04 -1.991278e-04 -3.978902e-05
       137      pv              1.945               3.89              9.725   1.836425e-04  4.415401e-04 -1.066665e-04
       138      pv               3.89               3.89               7.78  -2.972320e-05 -6.933006e-05  2.987719e-05
       139      pv              1.945              5.835               7.78  -6.195777e-06 -1.730822e-04  1.165783e-04
       140      pv               3.89              5.835             13.615  -1.477236e-04 -1.991278e-04 -3.978902e-05
       141      pv              1.945               3.89             13.615   1.836425e-04  4.415401e-04 -1.066665e-04
       142      pv               3.89               3.89              11.67  -2.972320e-05 -6.933006e-05  2.987719e-05
       143      pv              1.945              5.835              11.67  -6.195777e-06 -1.730822e-04  1.165783e-04
       144      pv               3.89              9.725              1.945  -1.477236e-04 -1.991278e-04 -3.978902e-05
       145      pv              1.945               7.78              1.945   1.836425e-04  4.415401e-04 -1.066665e-04
       146      pv               3.89               7.78                  0  -2.972320e-05 -6.933006e-05  2.987719e-05
       147      pv              1.945              9.725                  0  -6.195777e-06 -1.730822e-04  1.165783e-04
       148      pv               3.89              9.725              5.835  -1.477236e-04 -1.991278e-04 -3.978902e-05
       149      pv              1.945               7.78              5.835   1.836425e-04  4.415401e-04 -1.066665e-04
       150      pv               3.89               7.78               3.89  -2.972320e-05 -6.933006e-05  2.987719e-05
       151      pv              1.945              9.725               3.89  -6.195777e-06 -1.730822e-04  1.165783e-04
       152      pv               3.89              9.725              9.725  -1.477236e-04 -1.991278e-04 -3.978902e-05
       153      pv              1.945               7.78              9.725   1.836425e-04  4.415401e-04 -1.066665e-04
       154      pv               3.89               7.78               7.78  -2.972320e-05 -6.933006e-05  2.987719e-05
       155      pv              1.945              9.725               7.78  -6.195777e-06 -1.730822e-04  1.165783e-04
       156      pv               3.89              9.725             13.615  -1.477236e-04 -1.991278e-04 -3.978902e-05
       157      pv              1.945               7.78             13.615   1.836425e-04  4.415401e-04 -1.066665e-04
       158      pv               3.89               7.78              11.67  -2.972320e-05 -6.933006e-05  2.987719e-05
       159      pv              1.945              9.725              11.67  -6.195777e-06 -1.730822e-04  1.165783e-04
       160      pv               3.89             13.615              1.945  -1.477236e-04 -1.991278e-04 -3.978902e-05
       161      pv              1.945              11.67              1.945   1.836425e-04  4.415401e-04 -1.066665e-04
       162      pv               3.89              11.67                  0  -2.972320e-05 -6.933006e-05  2.987719e-05
       163      pv              1.945             13.615                  0  -6.195777e-06 -1.730822e-04  1.165783e-04
       164      pv               3.89             13.615              5.835  -1.477236e-04 -1.991278e-04 -3.978902e-05
       165      pv              1.945              11.67              5.835   1.836425e-04  4.415401e-04 -1.066665e-04
       166      pv               3.89              11.67               3.89  -2.972320e-05 -6.933006e-05  2.987719e-05
       167      pv              1.945             13.615               3.89  -6.195777e-06 -1.730822e-04  1.165783e-04
       168      pv               3.89             13.615              9.725  -1.477236e-04 -1.991278e-04 -3.978902e-05
       169      pv              1.945              11.67              9.725   1.836425e-04  4.415401e-04 -1.066665e-04
       170      pv               3.89              11.67               7.78  -2.972320e-05 -6.933006e-05  2.987719e-05
       171      pv              1.945             13.615               7.78  -6.195777e-06 -1.730822e-04  1.165783e-04
       172      pv               3.89             13.615             13.615  -1.477236e-04 -1.991278e-04 -3.978902e-05
       173      pv              1.945              11.67             13.615   1.836425e-04  4.415401e-04 -1.066665e-04
       174      pv               3.89              11.67              11.67  -2.972320e-05 -6.933006e-05  2.987719e-05
       175      pv              1.945             13.615              11.67  -6.195777e-06 -1.730822e-04  1.165783e-04
       176      pv               3.89             17.505              1.945  -1.477236e-04 -1.991278e-04 -3.978902e-05
       177      pv              1.945              15.56              1.945   1.836425e-04  4.415401e-04 -1.066665e-04
       178      pv               3.89              15.56                  0  -2.972320e-05 -6.933006e-05  2.987719e-05
       179      pv              1.945             17.505                  0  -6.195777e-06 -1.730822e-04  1.165783e-04
       180      pv               3.89             17.505              5.835  -1.477236e-04 -1.991278e-04 -3.978902e-05
       181      pv              1.945              15.56              5.835   1.836425e-04  4.415401e-04 -1.066665e-04
       182      pv               3.89              15.56               3.89  -2.972320e-05 -6.933006e-05  2.987719e-05
       183      pv              1.945             17.505               3.89  -6.195777e-06 -1.730822e-04  1.165783e-04
       184      pv               3.89             17.505              9.725  -1.477236e-04 -1.991278e-04 -3.978902e-05
       185      pv              1.945              15.56              9.725   1.836425e-04  4.415401e-04 -1.066665e-04
       186      pv               3.89              15.56               7.78  -2.972320e-05 -6.933006e-05  2.987719e-05
       187      pv              1.945             17.505               7.78  -6.195777e-06 -1.730822e-04  1.165783e-04
       188      pv               3.89             17.505             13.615  -1.477236e-04 -1.991278e-04 -3.978902e-05
       189      pv              1.945              15.56             13.615   1.836425e-04  4.415401e-04 -1.066665e-04
       190      pv               3.89              15.56              11.67  -2.972320e-05 -6.933006e-05  2.987719e-05
       191      pv              1.945             17.505              11.67  -6.195777e-06 -1.730822e-04  1.165783e-04
       192      pv               3.89             21.395              1.945  -1.477236e-04 -1.991278e-04 -3.978902e-05
       193      pv              1.945              19.45              1.945   1.836425e-04  4.415401e-04 -1.066665e-04
       194      pv               3.89              19.45                  0  -2.972320e-05 -6.933006e-05  2.987719e-05
       195      pv              1.945             21.395                  0  -6.195777e-06 -1.730822e-04  1.165783e-04
       196      pv               3.89             21.395              5.835  -1.477236e-04 -1.991278e-04 -3.978902e-05
       197      pv              1.945              19.45              5.835   1.836425e-04  4.415401e-04 -1.066665e-04
       198      pv               3.89              19.45               3.89  -2.972320e-05 -6.933006e-05  2.987719e-05
       199      pv              1.945             21.395               3.89  -6.195777e-06 -1.730822e-04  1.165783e-04
       200      pv               3.89             21.395              9.725  -1.477236e-04 -1.991278e-04 -3.978902e-05
       201      pv              1.945              19.45              9.725   1.836425e-04  4.415401e-04 -1.066665e-04
       202      pv               3.89              19.45               7.78  -2.972320e-05 -6.933006e-05  2.987719e-05
       203      pv              1.945             21.395               7.78  -6.195777e-06 -1.730822e-04  1.165783e-04
       204      pv               3.89             21.395             13.615  -1.477236e-04 -1.991278e-04 -3.978902e-05
       205      pv              1.945              19.45             13.615   1.836425e-04  4.415401e-04 -1.066665e-04
       206      pv               3.89              19.45              11.67  -2.972320e-05 -6.933006e-05  2.987719e-05
       207      pv              1.945             21.395              11.67  -6.195777e-06 -1.730822e-04  1.165783e-04
       208      pv               3.89             25.285              1.945  -1.477236e-04 -1.991278e-04 -3.978902e-05
       209      pv              1.945              23.34              1.945   1.836425e-04  4.415401e-04 -1.066665e-04
       210      pv               3.89              23.34                  0  -2.972320e-05 -6.933006e-05  2.987719e-05
       211      pv              1.945             25.285                  0  -6.195777e-06 -1.730822e-04  1.165783e-04
       212      pv               3.89             25.285              5.835  -1.477236e-04 -1.991278e-04 -3.978902e-05
       213      pv              1.945              23.34              5.835   1.836425e-04  4.415401e-04 -1.066665e-04
       214      pv               3.89              23.34               3.89  -2.972320e-05 -6.933006e-05  2.987719e-05
       215      pv              1.945             25.285               3.89  -6.195777e-06 -1.730822e-04  1.165783e-04
       216      pv               3.89             25.285              9.725  -1.477236e-04 -1.991278e-04 -3.978902e-05
       217      pv              1.945              23.34              9.725   1.836425e-04  4.415401e-04 -1.066665e-04
       218      pv               3.89              23.34               7.78  -2.972320e-05 -6.933006e-05  2.987719e-05
       219      pv              1.945             25.285               7.78  -6.195777e-06 -1.730822e-04  1.165783e-04
       220      pv               3.89             25.285             13.615  -1.477236e-04 -1.991278e-04 -3.978902e-05
       221      pv              1.945              23.34             13.615   1.836425e-04  4.415401e-04 -1.066665e-04
       222      pv               3.89              23.34              11.67  -2.972320e-05 -6.933006e-05  2.987719e-05
       223      pv              1.945             25.285              11.67  -6.195777e-06 -1.730822e-04  1.165783e-04
       224      pv               7.78              1.945              1.945  -1.477236e-04 -1.991278e-04 -3.978902e-05
       225      pv              5.835                  0              1.945   1.836425e-04  4.415401e-04 -1.066665e-04
       226      pv               7.78                  0                  0  -2.972320e-05 -6.933006e-05  2.987719e-05
       227      pv              5.835              1.945                  0  -6.195777e-06 -1.730822e-04  1.165783e-04
       228      pv               7.78              1.945              5.835  -1.477236e-04 -1.991278e-04 -3.978902e-05
       229      pv              5.835                  0              5.835   1.836425e-04  4.415401e-04 -1.066665e-04
       230      pv               7.78                  0               3.89  -2.972320e-05 -6.933006e-05  2.987719e-05
       231      pv              5.835              1.945               3.89  -6.195777e-06 -1.730822e-04  1.165783e-04
       232      pv               7.78              1.945              9.725  -1.477236e-04 -1.991278e-04 -3.978902e-05
       233      pv              5.835                  0              9.725   1.836425e-04  4.415401e-04 -1.066665e-04
       234      pv               7.78                  0               7.78  -2.972320e-05 -6.933006e-05  2.987719e-05
       235      pv              5.835              1.945               7.78  -6.195777e-06 -1.730822e-04  1.165783e-04
       236      pv               7.78              1.945             13.615  -1.477236e-04 -1.991278e-04 -3.978902e-05
       237      pv              5.835                  0             13.615   1.836425e-04  4.415401e-04 -1.066665e-04
       238      pv               7.78                  0              11.67  -2.972320e-05 -6.933006e-05  2.987719e-05
       239      pv              5.835              1.945              11.67  -6.195777e-06 -1.730822e-04  1.165783e-04